import numpy as np

memory 64 GB

molecule test {
-1 1
C        -26.06300        1.34500        0.50400
N        -25.94100        2.53800        1.08300
O        -25.46700        0.36500        0.92600
H        -26.33000        3.25800        0.81800
C        -26.98200        1.21300       -0.69900
H        -27.34100        2.09200       -0.89700
H        -27.79464        0.52328       -0.47096
H        -26.43211        0.82515       -1.55649
C        -25.09700        2.69600        2.25900
H        -24.23200        2.29900        2.07100
C        -24.90700        4.19100        2.58300
C        -24.19600        4.91400        1.49100
H        -25.77600        4.60400        2.70500
H        -24.38200        4.27700        3.39500
H        -24.69400        4.79800        0.66700
H        -23.30700        4.53800        1.39800
C        -24.04100        6.40300        1.72600
O        -23.19800        6.98800        1.02400
O        -24.74800        6.98000        2.59000
C        -25.68100        1.98900        3.47200
N        -24.79400        1.53500        4.33100
O        -26.90300        1.91200        3.67500
H        -23.95900        1.44700        4.14600
C        -25.12100        1.13300        5.68200
H        -26.07900        1.20500        5.81900
C        -24.69200       -0.31700        5.93900
C        -25.41900       -1.29400        5.06300
H        -23.74200       -0.40200        5.76200
H        -24.87900       -0.54300        6.86400
H        -25.28300       -1.04200        4.13700
C        -24.95400       -2.74300        5.22400
H        -26.36400       -1.26200        5.28000
O        -25.03500       -3.48200        4.24300
O        -24.60200       -3.13200        6.36300
C        -24.42000        2.05400        6.65600
N        -25.18000        2.65700        7.55300
O        -23.21300        2.23500        6.59200
H        -26.01000        2.46700        7.67500
C        -24.69000        3.71900        8.44100
H        -23.74800        3.84000        8.24500
C        -25.45600        5.01300        8.19200
C        -24.97600        5.66500        6.91400
H        -26.40300        4.82000        8.10600
H        -25.30800        5.62600        8.92800
H        -24.86600        4.98800        6.22800
C        -25.97700        6.69100        6.41900
H        -24.13200        6.11300        7.07700
N        -25.39400        7.44600        5.32300
H        -26.77700        6.24400        6.10000
H        -26.20200        7.30300        7.13600
H        -25.43500        7.11200        4.53200
C        -24.80100        8.62500        5.47600
N        -24.24800        9.20100        4.45100
N        -24.74700        9.20300        6.66700
H        -24.36200        9.96600        6.75800
H        -25.09800        8.81400        7.34900
H        -24.26800        8.81900        3.68100
H        -23.86300        9.96400        4.54300
C        -24.72900        3.35200        9.91600
N        -23.61700        3.63000       10.61600
O        -25.71200        2.77800       10.38400
H        -22.93400        4.01900       10.26600
C        -23.41300        3.32300       12.02800
H        -24.21800        2.95400       12.42300
C        -22.31500        2.29400       12.20700
H        -21.54700        2.57500       11.68500
H        -22.64200        1.44000       11.88200
C        -21.84300        2.08300       13.61600
H        -21.13100        1.42400       13.60700
H        -21.50900        2.92700       13.95900
C        -22.90800        1.59100       14.57400
O        -23.84100        2.31300       14.92400
N        -22.74600        0.34200       15.03900
H        -22.06900       -0.12500       14.78900
H        -23.32000        0.00900       15.58600
C        -23.08200        4.64500       12.71900
N        -24.00200        5.09800       13.56500
O        -22.04500        5.28100       12.44300
H        -24.76000        4.71700       13.70700
H        -23.86467        5.92265       14.09528
}

set {
 basis          aug-cc-pv_dpd_z
 df_basis_scf   aug-cc-pv_dpd_z-jkfit
 scf_type       df
 freeze_core    true
 guess          sad
 reference      rhf
 damping_percentage 20.0 
}

e, wfn = energy('pbe0', return_wfn=True)
