import numpy as np

memory 8 GB

set {
scf_type pk
basis aug-cc-pvdz
d_convergence 10
reference rhf
gdma_switch   0
gdma_limit    0
gdma_origin   [ 0.0,  0.0,  0.0 ]
}

molecule test {
0 1 
 C   -0.380049057105    1.512263813424    1.167165520014
 C   -1.760049057105    1.156263813424    1.721165520014
 H    0.267950942895    0.635263813424    1.156165520014
 H   -0.481049057105    1.894263813424    0.153165520014
 H    0.073950942895    2.274263813424    1.799165520014
 H   -2.382049057105    2.054263813424    1.704165520014
 H   -1.663281057105    0.801443813424    2.757865520014
 H   -2.265556057105    0.382293813424    1.124985520014
 C    0.349950942895   -1.315736186576   -1.199834479986
 C    1.794950942895   -1.354736186576   -1.684834479986
 H    0.311950942895   -1.593736186576   -0.147834479986
 H   -0.071049057105   -0.316736186576   -1.301834479986
 H   -0.281049057105   -1.990736186576   -1.782834479986
 H    1.786950942895   -1.264736186576   -2.766834479986
 H    2.240480942895   -2.329416186576   -1.436834479986
 H    2.405550942895   -0.523276186576   -1.302944479986
}

e, wfn = energy('pbe', return_wfn=True)
wfn.to_file('SSI-029ALA-274ILE-1-dimer_wfn')
oeprop(wfn, 'MULLIKEN_CHARGES')
gdma(wfn)
dmavals = variable('DMA DISTRIBUTED MULTIPOLES')
charges = np.array(dmavals)
print(charges)
np.save('SSI-029ALA-274ILE-1-dimer.npy', np.array(charges))