import numpy as np

memory 8 GB

set {
scf_type pk
basis aug-cc-pvdz
d_convergence 10
reference rhf
gdma_switch   0
gdma_limit    0
gdma_origin   [ 0.0,  0.0,  0.0 ]
}

molecule test {
0 1 
 C    0.160602735745   -1.642024088669   -0.160787444469
 C    0.596602735745   -2.777024088669    0.732212555531
 H    0.423602735745   -1.838024088669   -1.199787444469
 H   -0.917397264255   -1.500024088669   -0.084787444469
 H    0.682602735745   -0.763024088669    0.194212555531
 H    0.285602735745   -3.725024088669    0.293212555531
 H    0.072602735745   -2.657024088669    1.681212555531
 H    1.680682735745   -2.781304088669    0.918606555531
 C    0.160602735745    1.690975911331   -0.202787444469
 C   -0.912397264255    2.725975911331   -0.378787444469
 H    1.125602735745    2.138975911331   -0.434787444469
 H    0.168602735745    1.332975911331    0.824212555531
 H   -0.032397264255    0.882975911331   -0.903787444469
 H   -0.567397264255    3.664975911331    0.045212555531
 H   -1.764397264255    2.402975911331    0.212212555531
 H   -1.222137264255    2.866505911331   -1.424880444469
}

e, wfn = energy('pbe', return_wfn=True)
wfn.to_file('SSI-030ILE-055ILE-1-dimer_wfn')
oeprop(wfn, 'MULLIKEN_CHARGES')
gdma(wfn)
dmavals = variable('DMA DISTRIBUTED MULTIPOLES')
charges = np.array(dmavals)
print(charges)
np.save('SSI-030ILE-055ILE-1-dimer.npy', np.array(charges))