import numpy as np

memory 8 GB

set {
scf_type pk
basis aug-cc-pvdz
d_convergence 10
reference rhf
gdma_switch   0
gdma_limit    0
gdma_origin   [ 0.0,  0.0,  0.0 ]
}

molecule test {
-1 1 
 C    0.526468532776   -3.030010887378   -1.627722966624
 C    0.249468532776   -1.899010887378   -0.656722966624
 O   -0.892531467224   -1.596010887378   -0.338722966624
 N    1.283468532776   -1.275010887378   -0.160722966624
 H    1.094468532776   -0.520010887378    0.494277033376
 H    2.217468532776   -1.558010887378   -0.396722966624
 H    0.511468532776   -3.958010887378   -1.055722966624
 H    1.525468532776   -2.930010887378   -2.053722966624
 H   -0.220947467224   -3.106190887378   -2.431194966624
 C    0.402468532776    2.432989112622   -0.426722966624
 C   -0.362531467224    1.888989112622    0.747277033376
 O    0.252468532776    1.155989112622    1.583277033376
 O   -1.538531467224    2.284989112622    0.842277033376
 H    1.351468532776    1.908989112622   -0.386722966624
 H    0.606468532776    3.490989112622   -0.251722966624
 H   -0.057424467224    2.334697112622   -1.421125966624
}

e, wfn = energy('pbe', return_wfn=True)
wfn.to_file('SSI-004GLN-056GLU-1-dimer_wfn')
oeprop(wfn, 'MULLIKEN_CHARGES')
gdma(wfn)
dmavals = variable('DMA DISTRIBUTED MULTIPOLES')
charges = np.array(dmavals)
print(charges)
np.save('SSI-004GLN-056GLU-1-dimer.npy', np.array(charges))