import numpy as np

memory 8 GB

set {
scf_type pk
basis aug-cc-pvdz
d_convergence 10
reference rhf
gdma_switch   0
gdma_limit    0
gdma_origin   [ 0.0,  0.0,  0.0 ]
}

molecule test {
0 1 
 C   -0.664120107927    1.086876619822    0.938792156139
 C   -0.666120107927    2.353876619822    1.761792156139
 H   -1.334120107927    1.160876619822    0.086792156139
 H    0.342879892073    0.920876619822    0.563792156139
 H   -0.926120107927    0.218876619822    1.540792156139
 H   -0.413120107927    3.198876619822    1.121792156139
 H    0.118879892073    2.277876619822    2.514792156139
 H   -1.626340107927    2.534546619822    2.267092156139
 C   -0.007120107927   -1.383123380178   -1.197207843861
 C    1.326879892073   -2.057123380178   -1.505207843861
 H   -0.808120107927   -1.828123380178   -1.787207843861
 H   -0.241120107927   -1.504123380178   -0.139207843861
 H    0.057879892073   -0.323123380178   -1.439207843861
 H    2.086879892073   -1.631123380178   -0.849207843861
 H    1.619689892073   -1.895573380178   -2.553107843861
 H    1.247519892073   -3.135893380178   -1.305307843861
}

e, wfn = energy('pbe', return_wfn=True)
wfn.to_file('SSI-151ILE-159VAL-1-dimer_wfn')
oeprop(wfn, 'MULLIKEN_CHARGES')
gdma(wfn)
dmavals = variable('DMA DISTRIBUTED MULTIPOLES')
charges = np.array(dmavals)
print(charges)
np.save('SSI-151ILE-159VAL-1-dimer.npy', np.array(charges))