import numpy as np

memory 8 GB

set {
scf_type pk
basis aug-cc-pvdz
d_convergence 10
reference rhf
gdma_switch   0
gdma_limit    0
gdma_origin   [ 0.0,  0.0,  0.0 ]
}

molecule test {
0 1 
 C    1.135187031720    1.504222568656   -0.193697666836
 C    1.015187031720    2.815222568656   -0.977697666836
 H    1.968187031720    1.520222568656    0.509302333164
 H    0.220187031720    1.324222568656    0.370302333164
 H    1.239187031720    0.656222568656   -0.869697666836
 H    0.167187031720    2.740222568656   -1.658697666836
 H    1.915697031720    3.004465568656   -1.580417666836
 H    0.836807031720    3.655561568656   -0.290667666836
 C   -0.708812968280   -1.495777431344    0.469302333164
 C   -1.433812968280   -2.821777431344    0.699302333164
 H   -0.363812968280   -1.430777431344   -0.563697666836
 H   -1.388812968280   -0.666777431344    0.671302333164
 H    0.147187031720   -1.417777431344    1.141302333164
 H   -1.772812968280   -2.841777431344    1.734302333164
 H   -0.748702968280   -3.665046431344    0.527482333164
 H   -2.312552968280   -2.901268431344    0.042412333164
}

e, wfn = energy('pbe', return_wfn=True)
wfn.to_file('SSI-192ILE-242LEU-1-dimer_wfn')
oeprop(wfn, 'MULLIKEN_CHARGES')
gdma(wfn)
dmavals = variable('DMA DISTRIBUTED MULTIPOLES')
charges = np.array(dmavals)
print(charges)
np.save('SSI-192ILE-242LEU-1-dimer.npy', np.array(charges))