import numpy as np

memory 8 GB

set {
scf_type pk
basis aug-cc-pvdz
d_convergence 10
reference rhf
gdma_switch   0
gdma_limit    0
gdma_origin   [ 0.0,  0.0,  0.0 ]
}

molecule test {
-1 1 
 C   -1.352552316716   -1.496896654660    0.946128655212
 C   -0.214552316716   -1.418896654660   -0.057871344788
 O    0.979447683284   -1.475896654660    0.315128655212
 O   -0.501552316716   -1.235896654660   -1.260871344788
 H   -1.981552316716   -2.362896654660    0.735128655212
 H   -1.963552316716   -0.599896654660    0.830128655212
 H   -0.991926316716   -1.545746654660    1.984185655212
 C    0.633447683284    2.070103345340    0.316128655212
 C    0.441447683284    3.452103345340   -0.248871344788
 H   -0.135552316716    1.831103345340    1.049128655212
 H    0.560447683284    1.351103345340   -0.496871344788
 H    1.620447683284    1.985103345340    0.771128655212
 H   -0.558552316716    3.520103345340   -0.678871344788
 H    1.156447683284    3.576103345340   -1.059871344788
 H    0.569897683284    4.249033345340    0.498387655212
}

e, wfn = energy('pbe', return_wfn=True)
wfn.to_file('SSI-079ASP-135ILE-1-dimer_wfn')
oeprop(wfn, 'MULLIKEN_CHARGES')
gdma(wfn)
dmavals = variable('DMA DISTRIBUTED MULTIPOLES')
charges = np.array(dmavals)
print(charges)
np.save('SSI-079ASP-135ILE-1-dimer.npy', np.array(charges))