import numpy as np

memory 8 GB

set {
scf_type pk
basis aug-cc-pvdz
d_convergence 10
reference rhf
gdma_switch   0
gdma_limit    0
gdma_origin   [ 0.0,  0.0,  0.0 ]
}

molecule test {
0 1 
 C   -1.332432282700   -1.777131949608   -0.300047964595
 C   -0.741432282700   -2.064131949608    1.070952035405
 H   -1.359432282700   -0.714131949608   -0.524047964595
 H   -0.727432282700   -2.274131949608   -1.059047964595
 H   -2.346432282700   -2.174131949608   -0.350047964595
 H    0.283567717300   -1.689131949608    1.086952035405
 H   -0.682432282700   -3.138131949608    1.191952035405
 H   -1.298672282700   -1.608731949608    1.902871035405
 C    0.714567717300    1.390868050392   -0.822047964595
 C    1.352567717300    2.456868050392    0.050952035405
 H    1.435567717300    0.998868050392   -1.538047964595
 H    0.404567717300    0.572868050392   -0.178047964595
 H   -0.154432282700    1.787868050392   -1.340047964595
 H    2.064567717300    1.992868050392    0.721952035405
 H    1.870847717300    3.202298050392   -0.570117964595
 H    0.589837717300    2.966558050392    0.657963035405
}

e, wfn = energy('pbe', return_wfn=True)
wfn.to_file('SSI-007ILE-030LEU-2-dimer_wfn')
oeprop(wfn, 'MULLIKEN_CHARGES')
gdma(wfn)
dmavals = variable('DMA DISTRIBUTED MULTIPOLES')
charges = np.array(dmavals)
print(charges)
np.save('SSI-007ILE-030LEU-2-dimer.npy', np.array(charges))