import numpy as np

memory 8 GB

set {
scf_type pk
basis aug-cc-pvdz
d_convergence 10
reference rhf
gdma_switch   0
gdma_limit    0
gdma_origin   [ 0.0,  0.0,  0.0 ]
}

molecule test {
0 1 
 C   -1.999676752024    0.444884962562    1.927008214102
 C   -0.074676752024    0.736884962562    0.383008214102
 C   -0.589676752024    0.129884962562    1.501008214102
 C    1.198323247976    0.455884962562   -0.071991785898
 C    2.008323247976   -0.393115037438    0.646008214102
 C    0.234323247976   -0.712115037438    2.249008214102
 C    1.538323247976   -0.981115037438    1.815008214102
 H   -0.689676752024    1.423884962562   -0.181991785898
 H    1.570323247976    0.922884962562   -0.972991785898
 H   -2.500676752024   -0.485115037438    2.199008214102
 H   -2.544676752024    0.872884962562    1.084008214102
 H    3.010323247976   -0.605115037438    0.299008214102
 H   -0.140676752024   -1.193115037438    3.141008214102
 H    2.169323247976   -1.653115037438    2.377008214102
 H   -2.046776752024    1.143368962562    2.775478214102
 C   -0.631676752024    0.453884962562   -3.080991785898
 C   -1.136676752024   -0.230115037438   -4.385991785898
 H    0.439323247976    0.644884962562   -3.160991785898
 H   -1.143676752024    1.405884962562   -2.952991785898
 H   -0.825676752024   -0.180115037438   -2.218991785898
 H   -1.069676752024    0.472884962562   -5.214991785898
 H   -0.545946752024   -1.131575037438   -4.605999785898
 H   -2.193786752024   -0.506959037438   -4.259954785898
}

e, wfn = energy('pbe', return_wfn=True)
wfn.to_file('SSI-006PHE-050VAL-1-dimer_wfn')
oeprop(wfn, 'MULLIKEN_CHARGES')
gdma(wfn)
dmavals = variable('DMA DISTRIBUTED MULTIPOLES')
charges = np.array(dmavals)
print(charges)
np.save('SSI-006PHE-050VAL-1-dimer.npy', np.array(charges))