import numpy as np

memory 8 GB

set {
scf_type pk
basis aug-cc-pvdz
d_convergence 10
reference rhf
gdma_switch   0
gdma_limit    0
gdma_origin   [ 0.0,  0.0,  0.0 ]
}

molecule test {
0 1 
 C   -1.824634784347    0.565880035327    0.060475301835
 C   -2.176634784347    1.613880035327   -0.938524698165
 H   -1.028634784347   -0.095119964673   -0.252524698165
 H   -1.512634784347    1.051880035327    0.982475301835
 H   -2.703634784347    0.010880035327    0.299475301835
 H   -1.322634784347    2.272880035327   -0.993524698165
 H   -3.034634784347    2.183880035327   -0.576524698165
 H   -2.416554784347    1.155070035327   -1.909054698165
 C    1.689365215653   -0.753119964673   -0.164524698165
 C    2.312365215653   -1.428119964673    1.038475301835
 H    1.439365215653    0.280880035327    0.077475301835
 H    2.403365215653   -0.757119964673   -0.989524698165
 H    0.794365215653   -1.288119964673   -0.481524698165
 H    3.291365215653   -0.997119964673    1.241475301835
 H    1.660955215653   -1.321659964673    1.918435301835
 H    2.423825215653   -2.478709964673    0.732145301835
}

e, wfn = energy('pbe', return_wfn=True)
wfn.to_file('SSI-012ILE-028LEU-1-dimer_wfn')
oeprop(wfn, 'MULLIKEN_CHARGES')
gdma(wfn)
dmavals = variable('DMA DISTRIBUTED MULTIPOLES')
charges = np.array(dmavals)
print(charges)
np.save('SSI-012ILE-028LEU-1-dimer.npy', np.array(charges))