import numpy as np

memory 8 GB

set {
scf_type pk
basis aug-cc-pvdz
d_convergence 10
reference rhf
gdma_switch   0
gdma_limit    0
gdma_origin   [ 0.0,  0.0,  0.0 ]
}

molecule test {
0 1 
 C    1.211974896930   -0.795829256572   -1.315983676697
 C    2.141974896930    0.282170743428   -0.759983676697
 H    1.039974896930   -1.569829256572   -0.568983676697
 H    0.254974896930   -0.355829256572   -1.591983676697
 H    1.653974896930   -1.245829256572   -2.205983676697
 H    1.695974896930    0.649170743428    0.160016323303
 H    3.137114896930   -0.126369256572   -0.530224676697
 H    2.214014896930    1.135120743428   -1.450843676697
 C   -0.948025103070    0.451170743428    1.087016323303
 C   -2.405025103070    0.057170743428    0.985016323303
 H   -0.333025103070   -0.423829256572    1.307016323303
 H   -0.639025103070    0.892170743428    0.142016323303
 H   -0.800025103070    1.184170743428    1.879016323303
 H   -2.972025103070    0.875170743428    0.548016323303
 H   -2.753795103070   -0.119019256572    2.013276323303
 H   -2.508845103070   -0.831789256572    0.345511323303
}

e, wfn = energy('pbe', return_wfn=True)
wfn.to_file('SSI-016LEU-065LEU-1-dimer_wfn')
oeprop(wfn, 'MULLIKEN_CHARGES')
gdma(wfn)
dmavals = variable('DMA DISTRIBUTED MULTIPOLES')
charges = np.array(dmavals)
print(charges)
np.save('SSI-016LEU-065LEU-1-dimer.npy', np.array(charges))