import numpy as np

memory 8 GB

set {
scf_type pk
basis aug-cc-pvdz
d_convergence 10
reference rhf
gdma_switch   0
gdma_limit    0
gdma_origin   [ 0.0,  0.0,  0.0 ]
}

molecule test {
-1 1 
 C    1.809469767376    3.004613036786   -0.813665838131
 C    0.617469767376    2.122613036786   -0.457665838131
 O   -0.113530232624    1.634613036786   -1.344665838131
 O    0.388469767376    1.873613036786    0.748334161869
 H    1.693469767376    3.971613036786   -0.320665838131
 H    1.836469767376    3.178613036786   -1.891665838131
 H    2.756119767376    2.547913036786   -0.489203838131
 C    0.748469767376   -2.088386963214    0.742334161869
 C   -0.728530232624   -2.129386963214    0.412334161869
 O   -1.225530232624   -1.306386963214   -0.360665838131
 N   -1.452530232624   -3.058386963214    1.023334161869
 H    0.839469767376   -2.213386963214    1.822334161869
 H    1.130469767376   -1.100386963214    0.505334161869
 H   -2.444530232624   -3.100386963214    0.836334161869
 H   -1.020530232624   -3.705386963214    1.668334161869
 H    1.343019767376   -2.857766963214    0.227971161869
}

e, wfn = energy('pbe', return_wfn=True)
wfn.to_file('SSI-007ASP-011GLN-1-dimer_wfn')
oeprop(wfn, 'MULLIKEN_CHARGES')
gdma(wfn)
dmavals = variable('DMA DISTRIBUTED MULTIPOLES')
charges = np.array(dmavals)
print(charges)
np.save('SSI-007ASP-011GLN-1-dimer.npy', np.array(charges))