import numpy as np

memory 8 GB

set {
scf_type pk
basis aug-cc-pvdz
d_convergence 10
reference rhf
gdma_switch   0
gdma_limit    0
gdma_origin   [ 0.0,  0.0,  0.0 ]
}

molecule test {
0 1 
 C    1.746143108429    0.424427124497    0.398872099848
 C    1.362143108429    1.544427124497    1.357872099848
 H    1.313143108429   -0.508572875503    0.745872099848
 H    1.370143108429    0.647427124497   -0.600127900152
 H    2.830143108429    0.315427124497    0.356872099848
 H    0.286143108429    1.699427124497    1.288872099848
 H    1.628043108429    1.251287124497    2.384212099848
 H    1.877253108429    2.476127124497    1.081112099848
 C   -1.344856891571   -0.767572875503   -1.577127900152
 C   -1.761856891571   -1.209572875503   -0.182127900152
 H   -2.010856891571   -1.172572875503   -2.338127900152
 H   -1.394856891571    0.320427124497   -1.631127900152
 H   -0.319856891571   -1.071572875503   -1.767127900152
 H   -2.782856891571   -0.885572875503   -0.032127900152
 H   -1.148856891571   -0.681572875503    0.549872099848
 H   -1.666306891571   -2.291532875503   -0.008267900152
}

e, wfn = energy('pbe', return_wfn=True)
wfn.to_file('SSI-105LEU-168ILE-1-dimer_wfn')
oeprop(wfn, 'MULLIKEN_CHARGES')
gdma(wfn)
dmavals = variable('DMA DISTRIBUTED MULTIPOLES')
charges = np.array(dmavals)
print(charges)
np.save('SSI-105LEU-168ILE-1-dimer.npy', np.array(charges))