import numpy as np

memory 8 GB

set {
scf_type pk
basis aug-cc-pvdz
d_convergence 10
reference rhf
gdma_switch   0
gdma_limit    0
gdma_origin   [ 0.0,  0.0,  0.0 ]
}

molecule test {
0 1 
 C    1.496481035056   -0.724751836641   -0.997105914052
 C    2.635481035056   -0.766751836641    0.023894085948
 H    1.068481035056    0.274248163359   -1.073105914052
 H    0.696481035056   -1.399751836641   -0.690105914052
 H    1.858481035056   -1.034751836641   -1.979105914052
 H    2.227481035056   -0.472751836641    0.982894085948
 H    3.398711035056   -0.031571836641   -0.271035914052
 H    3.079611035056   -1.768731836641    0.117584085948
 C   -1.540518964944    1.118248163359    0.074894085948
 C   -2.590518964944    0.370248163359    0.889894085948
 H   -0.563518964944    0.977248163359    0.539894085948
 H   -1.745518964944    2.187248163359    0.061894085948
 H   -1.500518964944    0.742248163359   -0.947105914052
 H   -2.541518964944    0.740248163359    1.913894085948
 H   -3.615684964944    0.529828163359    0.524424085948
 H   -2.373488964944   -0.707701836641    0.920174085948
}

e, wfn = energy('pbe', return_wfn=True)
wfn.to_file('SSI-011ILE-045VAL-1-dimer_wfn')
oeprop(wfn, 'MULLIKEN_CHARGES')
gdma(wfn)
dmavals = variable('DMA DISTRIBUTED MULTIPOLES')
charges = np.array(dmavals)
print(charges)
np.save('SSI-011ILE-045VAL-1-dimer.npy', np.array(charges))