import numpy as np

memory 8 GB

set {
scf_type pk
basis aug-cc-pvdz
d_convergence 10
reference rhf
gdma_switch   0
gdma_limit    0
gdma_origin   [ 0.0,  0.0,  0.0 ]
}

molecule test {
0 1 
 C    0.184387786795   -1.276660345509   -1.037535601615
 C    0.284387786795   -2.369660345509   -2.127535601615
 H    1.045387786795   -0.617660345509   -1.078535601615
 H   -0.707612213205   -0.676660345509   -1.223535601615
 H    0.084387786795   -1.706660345509   -0.039535601615
 H   -0.580612213205   -3.023660345509   -2.010535601615
 H    1.193987786795   -2.967310345509   -1.968019601615
 H    0.284387786795   -1.995510345509   -3.161949601615
 C   -0.394612213205    1.896339654491    0.844464398385
 C   -0.068612213205    1.755339654491    2.321464398385
 H    0.359387786795    1.398339654491    0.235464398385
 H   -1.361612213205    1.436339654491    0.636464398385
 H   -0.436612213205    2.950339654492    0.568464398385
 H   -0.015612213205    0.700339654491    2.564464398385
 H    0.911077786795    2.214479654492    2.519972398385
 H   -0.842652213205    2.223819654491    2.947070398385
}

e, wfn = energy('pbe', return_wfn=True)
wfn.to_file('SSI-172ILE-235VAL-1-dimer_wfn')
oeprop(wfn, 'MULLIKEN_CHARGES')
gdma(wfn)
dmavals = variable('DMA DISTRIBUTED MULTIPOLES')
charges = np.array(dmavals)
print(charges)
np.save('SSI-172ILE-235VAL-1-dimer.npy', np.array(charges))