import numpy as np

memory 8 GB

set {
scf_type pk
basis aug-cc-pvdz
d_convergence 10
reference rhf
gdma_switch   0
gdma_limit    0
gdma_origin   [ 0.0,  0.0,  0.0 ]
}

molecule test {
0 1 
 C   -0.193487274275    1.547777646024    1.558537742536
 C   -1.718487274275    1.618777646024    1.452537742536
 H    0.189512725725    0.746777646024    0.939537742536
 H    0.255512725725    2.485777646024    1.235537742536
 H    0.118512725725    1.390777646024    2.591537742536
 H   -2.065487274275    2.363777646024    2.167537742536
 H   -2.188135274275    0.653942646024    1.694457742536
 H   -2.024371274275    1.928959646024    0.442477742536
 C    0.494512725725   -1.270222353976   -0.989462257464
 C    1.410512725725   -1.905222353976   -2.024462257464
 H   -0.017487274275   -2.039222353976   -0.410462257464
 H    1.115512725725   -0.679222353976   -0.320462257464
 H   -0.230487274275   -0.613222353976   -1.469462257464
 H    1.833512725725   -1.114222353976   -2.642462257464
 H    0.846653725725   -2.600744353976   -2.663452257464
 H    2.249492725725   -2.417534353976   -1.530862257464
}

e, wfn = energy('pbe', return_wfn=True)
wfn.to_file('SSI-008ILE-034LEU-1-dimer_wfn')
oeprop(wfn, 'MULLIKEN_CHARGES')
gdma(wfn)
dmavals = variable('DMA DISTRIBUTED MULTIPOLES')
charges = np.array(dmavals)
print(charges)
np.save('SSI-008ILE-034LEU-1-dimer.npy', np.array(charges))