import numpy as np

memory 8 GB

set {
scf_type pk
basis aug-cc-pvdz
d_convergence 10
reference rhf
gdma_switch   0
gdma_limit    0
gdma_origin   [ 0.0,  0.0,  0.0 ]
}

molecule test {
1 1 
 C    1.212881321847    0.772151545773    2.159603966312
 C    1.094881321847   -0.492848454227    0.077603966312
 N    0.924881321847   -0.426848454227    1.393603966312
 N    1.611881321847    0.515151545773   -0.596396033688
 N    0.835881321847   -1.612848454227   -0.539396033688
 H    0.535881321847   -1.225848454227    1.878603966312
 H    1.815881321847    1.394151545773   -0.139396033688
 H    1.781881321847    0.435151545773   -1.593396033688
 H    0.433881321847   -2.387848454227   -0.024396033688
 H    1.038881321847   -1.727848454227   -1.520396033688
 H    0.558881321847    0.766151545773    3.033603966312
 H    0.971881321847    1.669151545773    1.586603966312
 H    2.259743321847    0.782291545773    2.497203966312
 C   -2.507118678153    0.669151545773   -0.509396033688
 C   -3.112118678153    0.541151545773   -1.908396033688
 H   -1.695118678153    1.397151545773   -0.510396033688
 H   -3.274118678153    1.014151545773    0.184603966312
 H   -2.136118678153   -0.298848454227   -0.169396033688
 H   -3.439118678153    1.542151545773   -2.179396033688
 H   -2.290029678153    0.202431545773   -2.556036033688
 H   -3.993942678153   -0.116308454227   -1.919756033688
}

e, wfn = energy('pbe', return_wfn=True)
wfn.to_file('SSI-190ARG-235LEU-1-dimer_wfn')
oeprop(wfn, 'MULLIKEN_CHARGES')
gdma(wfn)
dmavals = variable('DMA DISTRIBUTED MULTIPOLES')
charges = np.array(dmavals)
print(charges)
np.save('SSI-190ARG-235LEU-1-dimer.npy', np.array(charges))