import numpy as np

memory 8 GB

set {
scf_type pk
basis aug-cc-pvdz
d_convergence 10
reference rhf
gdma_switch   0
gdma_limit    0
gdma_origin   [ 0.0,  0.0,  0.0 ]
}

molecule test {
0 1 
 C   -0.723953719645   -0.990990315277    2.387735943544
 O   -0.293953719645   -0.094990315277    1.382735943544
 H   -0.978953719645   -0.058990315277    0.705735943544
 H   -0.942953719645   -1.968990315277    1.957735943544
 H    0.006657080355   -1.090880315277    3.203965943544
 H   -1.644476119645   -0.522760315277    2.766415943544
 C    0.480046280355   -0.059990315277   -1.549264056456
 C    0.641046280355    1.206009684723   -2.403264056456
 H    0.917046280355    0.115009684723   -0.577264056456
 H   -0.533953719645   -0.424990315277   -1.433264056456
 H    1.058046280355   -0.863990315277   -2.009264056456
 H    0.881046280355    0.879009684723   -3.417264056456
 H    1.475359280355    1.827875684723   -2.046604056456
 H   -0.301223219645    1.770367684723   -2.463504056456
}

e, wfn = energy('pbe', return_wfn=True)
wfn.to_file('SSI-037THR-053ILE-1-dimer_wfn')
oeprop(wfn, 'MULLIKEN_CHARGES')
gdma(wfn)
dmavals = variable('DMA DISTRIBUTED MULTIPOLES')
charges = np.array(dmavals)
print(charges)
np.save('SSI-037THR-053ILE-1-dimer.npy', np.array(charges))