import numpy as np

memory 8 GB

set {
scf_type pk
basis aug-cc-pvdz
d_convergence 10
reference rhf
gdma_switch   0
gdma_limit    0
gdma_origin   [ 0.0,  0.0,  0.0 ]
}

molecule test {
0 1 
 C    2.711653994001   -0.632379020044   -0.692530983812
 C    4.097653994001   -0.465379020044   -1.314530983812
 H    2.775653994001   -0.867379020044    0.366469016188
 H    2.150653994001    0.296620979956   -0.788530983812
 H    2.152653994001   -1.413379020044   -1.210530983812
 H    4.685653994001    0.212620979956   -0.697530983812
 H    4.582743994001   -1.450694020044   -1.376518983812
 H    4.021783994001   -0.033274020044   -2.323256983812
 C   -0.097346005999   -0.087379020044    2.545469016188
 C   -0.626346005999   -0.938379020044    0.235469016188
 C   -0.708346005999    0.086620979956    1.179469016188
 C   -1.213346005999   -0.798379020044   -1.025530983812
 C   -1.892346005999    0.367620979956   -1.351530983812
 C   -1.388346005999    1.255620979956    0.847469016188
 C   -1.981346005999    1.397620979956   -0.415530983812
 H   -0.069346005999   -1.831379020044    0.465469016188
 H   -1.130346005999   -1.594379020044   -1.753530983812
 H    0.152653994001    0.891620979956    2.943469016188
 H    0.834653994001   -0.643379020044    2.444469016188
 H   -2.348346005999    0.477620979956   -2.326530983812
 H   -1.473346005999    2.055620979956    1.568469016188
 H   -2.509346005999    2.306620979956   -0.664530983812
 H   -0.750666005999   -0.616637020044    3.254729016188
}

e, wfn = energy('pbe', return_wfn=True)
wfn.to_file('SSI-112LEU-142PHE-1-dimer_wfn')
oeprop(wfn, 'MULLIKEN_CHARGES')
gdma(wfn)
dmavals = variable('DMA DISTRIBUTED MULTIPOLES')
charges = np.array(dmavals)
print(charges)
np.save('SSI-112LEU-142PHE-1-dimer.npy', np.array(charges))