import numpy as np

memory 8 GB

set {
scf_type pk
basis aug-cc-pvdz
d_convergence 10
reference rhf
gdma_switch   0
gdma_limit    0
gdma_origin   [ 0.0,  0.0,  0.0 ]
}

molecule test {
0 1 
 C   -0.175379888472   -1.297880218870    1.306573268915
 C   -1.459379888472   -1.336880218870    2.125573268915
 H    0.480620111528   -2.107880218870    1.621573268915
 H   -0.413379888472   -1.434880218870    0.251573268915
 H    0.332620111528   -0.341880218870    1.437573268915
 H   -1.951379888472   -2.275880218870    1.883573268915
 H   -1.237513388472   -1.348260218870    3.202906268915
 H   -2.142770888472   -0.521100218870    1.847208268915
 C    0.799620111528    0.561119781130   -1.765426731085
 C    0.841620111528    2.087119781130   -1.667426731085
 H    1.412620111528    0.215119781130   -2.600426731085
 H    1.120620111528    0.089119781130   -0.842426731085
 H   -0.214379888472    0.195119781130   -1.907426731085
 H    0.341620111528    2.376119781130   -0.746426731085
 H    0.310127711528    2.557396781130   -2.507876731085
 H    1.884034111528    2.436511781130   -1.631406731085
}

e, wfn = energy('pbe', return_wfn=True)
wfn.to_file('SSI-009VAL-084ILE-1-dimer_wfn')
oeprop(wfn, 'MULLIKEN_CHARGES')
gdma(wfn)
dmavals = variable('DMA DISTRIBUTED MULTIPOLES')
charges = np.array(dmavals)
print(charges)
np.save('SSI-009VAL-084ILE-1-dimer.npy', np.array(charges))