import numpy as np

memory 8 GB

set {
scf_type pk
basis aug-cc-pvdz
d_convergence 10
reference rhf
gdma_switch   0
gdma_limit    0
gdma_origin   [ 0.0,  0.0,  0.0 ]
}

molecule test {
0 1 
 C    1.345464163594   -0.221327118524    0.792554206687
 C    2.430464163594   -1.026327118524    1.512554206687
 H    1.241464163594   -0.579327118524   -0.233445793313
 H    0.391464163594   -0.320327118524    1.312554206687
 H    1.618464163594    0.832672881476    0.759554206687
 H    2.452464163594   -0.745327118524    2.567554206687
 H    3.378624163594   -0.771141118524    1.016694206687
 H    2.213214163594   -2.103131118524    1.455154206687
 C   -1.396535836406    1.198672881476   -1.189445793313
 C   -2.378535836406    0.040672881476   -1.108445793313
 H   -0.575535836406    1.041672881476   -0.498445793313
 H   -1.003535836406    1.275672881476   -2.204445793313
 H   -1.873535836406    2.136672881476   -0.929445793313
 H   -3.155535836406    0.221672881476   -1.848445793313
 H   -2.834155836406    0.003825881476   -0.107915793313
 H   -1.863595836406   -0.894009118524   -1.375295793313
}

e, wfn = energy('pbe', return_wfn=True)
wfn.to_file('SSI-009ALA-084LEU-1-dimer_wfn')
oeprop(wfn, 'MULLIKEN_CHARGES')
gdma(wfn)
dmavals = variable('DMA DISTRIBUTED MULTIPOLES')
charges = np.array(dmavals)
print(charges)
np.save('SSI-009ALA-084LEU-1-dimer.npy', np.array(charges))