import numpy as np

memory 8 GB

set {
scf_type pk
basis aug-cc-pvdz
d_convergence 10
reference rhf
gdma_switch   0
gdma_limit    0
gdma_origin   [ 0.0,  0.0,  0.0 ]
}

molecule test {
0 1 
 C    0.173745994175   -1.401142543966   -0.983207694120
 C    0.867745994175   -2.723142543966   -1.296207694120
 H    0.872745994175   -0.734142543966   -0.483207694120
 H   -0.184254005825   -0.930142543966   -1.895207694120
 H   -0.685254005825   -1.577142543966   -0.336207694120
 H    1.767745994175   -2.499142543966   -1.869207694120
 H    1.165911994175   -3.223202543966   -0.362912294120
 H    0.217954994175   -3.348192543966   -1.926352694120
 C   -0.792254005825    1.391857456034    1.400792305880
 C   -0.254254005825    2.728857456034    0.875792305880
 H   -1.427254005825    0.919857456034    0.649792305880
 H    0.032745994175    0.720857456034    1.637792305880
 H   -1.360254005825    1.532857456034    2.320792305880
 H    0.317745994175    3.181857456034    1.684792305880
 H   -1.069185005825    3.415007456034    0.601763305880
 H    0.411074994175    2.584037456034    0.011868805880
}

e, wfn = energy('pbe', return_wfn=True)
wfn.to_file('SSI-036LEU-098ILE-1-dimer_wfn')
oeprop(wfn, 'MULLIKEN_CHARGES')
gdma(wfn)
dmavals = variable('DMA DISTRIBUTED MULTIPOLES')
charges = np.array(dmavals)
print(charges)
np.save('SSI-036LEU-098ILE-1-dimer.npy', np.array(charges))