import numpy as np

memory 8 GB

set {
scf_type pk
basis aug-cc-pvdz
d_convergence 10
reference rhf
gdma_switch   0
gdma_limit    0
gdma_origin   [ 0.0,  0.0,  0.0 ]
}

molecule test {
0 1 
 C   -0.589157612798    1.302111444620   -0.923276660834
 C   -0.997157612798    2.532111444620   -1.765276660834
 H   -1.307157612798    0.494111444620   -1.060276660834
 H    0.396842387202    0.958111444620   -1.237276660834
 H   -0.534157612798    1.565111444620    0.132723339166
 H   -0.277157612798    3.328111444620   -1.569276660834
 H   -1.999978612798    2.864006444620   -1.458363460834
 H   -0.956477612798    2.320723444620   -2.844007660834
 C    0.724842387202   -1.997888555380    0.576723339166
 C    0.854842387202   -1.840888555380    2.108723339166
 H   -0.169157612798   -1.498888555380    0.206723339166
 H    1.593842387202   -1.548888555380    0.093723339166
 H    0.691842387202   -3.055888555380    0.323723339166
 H    0.950842387202   -0.777888555380    2.333723339166
 H   -0.046047612798   -2.232206555380    2.603963339166
 H    1.735712387202   -2.362188555380    2.511611339166
}

e, wfn = energy('pbe', return_wfn=True)
wfn.to_file('SSI-025VAL-057VAL-1-dimer_wfn')
oeprop(wfn, 'MULLIKEN_CHARGES')
gdma(wfn)
dmavals = variable('DMA DISTRIBUTED MULTIPOLES')
charges = np.array(dmavals)
print(charges)
np.save('SSI-025VAL-057VAL-1-dimer.npy', np.array(charges))