import numpy as np

memory 8 GB

set {
scf_type pk
basis aug-cc-pvdz
d_convergence 10
reference rhf
gdma_switch   0
gdma_limit    0
gdma_origin   [ 0.0,  0.0,  0.0 ]
}

molecule test {
0 1 
 C   -1.801398430062    0.493272358399    0.174164359004
 C   -3.211398430062    0.514272358399   -0.441835640996
 H   -1.131398430062   -0.081727641601   -0.464835640996
 H   -1.410398430062    1.505272358399    0.278164359004
 H   -1.816398430062    0.053272358399    1.172164359004
 H   -3.866398430062    1.040272358399    0.254164359004
 H   -3.610228430062   -0.499907641601   -0.591398740996
 H   -3.210688430062    1.054882358399   -1.399825740996
 C    1.933601569938   -0.123727641601   -0.198835640996
 C    3.081601569938   -0.882727641601    0.464164359004
 H    2.178601569938    0.932272358399   -0.303835640996
 H    1.739601569938   -0.541727641601   -1.187835640996
 H    1.035601569938   -0.219727641601    0.409164359004
 H    2.826601569938   -1.941727641601    0.479164359004
 H    3.224121569938   -0.530577641601    1.496481359004
 H    4.012331569938   -0.783547641601   -0.113679240996
}

e, wfn = energy('pbe', return_wfn=True)
wfn.to_file('SSI-026ILE-078ALA-1-dimer_wfn')
oeprop(wfn, 'MULLIKEN_CHARGES')
gdma(wfn)
dmavals = variable('DMA DISTRIBUTED MULTIPOLES')
charges = np.array(dmavals)
print(charges)
np.save('SSI-026ILE-078ALA-1-dimer.npy', np.array(charges))