import numpy as np

memory 8 GB

set {
scf_type pk
basis aug-cc-pvdz
d_convergence 10
reference rhf
gdma_switch   0
gdma_limit    0
gdma_origin   [ 0.0,  0.0,  0.0 ]
}

molecule test {
0 1 
 C    1.539069809312   -1.046607014246   -0.323268456073
 C    3.003069809312   -1.033607014246   -0.824268456073
 H    1.238069809312   -2.070607014246   -0.098268456073
 H    1.455069809312   -0.445607014246    0.580731543927
 H    0.876069809312   -0.640607014246   -1.088268456073
 H    3.302069809312   -0.006607014246   -1.052268456073
 H    3.052439809312   -1.645677014246   -1.736918456073
 H    3.633419809312   -1.511827014246   -0.060098456073
 C   -1.799930190688    0.445392985754    0.457731543927
 C   -2.732930190688    1.640392985754    0.692731543927
 H   -1.365930190688    0.124392985754    1.405731543927
 H   -2.368930190688   -0.380607014246    0.024731543927
 H   -1.004930190688    0.732392985754   -0.229268456073
 H   -3.165930190688    1.937392985754   -0.263268456073
 H   -2.204347190688    2.501872985754    1.126841543927
 H   -3.557557190688    1.339142985754    1.355481543927
}

e, wfn = energy('pbe', return_wfn=True)
wfn.to_file('SSI-014VAL-091ALA-1-dimer_wfn')
oeprop(wfn, 'MULLIKEN_CHARGES')
gdma(wfn)
dmavals = variable('DMA DISTRIBUTED MULTIPOLES')
charges = np.array(dmavals)
print(charges)
np.save('SSI-014VAL-091ALA-1-dimer.npy', np.array(charges))