import numpy as np

memory 8 GB

set {
scf_type pk
basis aug-cc-pvdz
d_convergence 10
reference rhf
gdma_switch   0
gdma_limit    0
gdma_origin   [ 0.0,  0.0,  0.0 ]
}

molecule test {
0 1 
 C   -0.182506557865   -0.878559201056   -1.434163255483
 C   -0.806506557865   -1.762559201056   -2.513163255483
 H    0.800493442135   -0.540559201056   -1.763163255483
 H   -0.805506557865    0.002440798944   -1.271163255483
 H   -0.059506557865   -1.433559201056   -0.506163255483
 H   -1.819506557865   -2.022559201056   -2.218163255483
 H   -0.242260557865   -2.703473201056   -2.592583255483
 H   -0.886057557865   -1.214304201056   -3.463473255483
 C    0.364493442135    0.942440798944    1.322836744517
 C    0.618493442135    1.698440798944    2.626836744517
 H    0.266493442135    1.632440798944    0.485836744517
 H    1.213493442135    0.291440798944    1.114836744517
 H   -0.525506557865    0.327440798944    1.397836744517
 H    1.534493442135    2.254440798944    2.504836744517
 H   -0.178407557865    2.427138798944    2.836471744517
 H    0.773531442135    0.981931798944    3.446945744517
}

e, wfn = energy('pbe', return_wfn=True)
wfn.to_file('SSI-018ALA-023VAL-1-dimer_wfn')
oeprop(wfn, 'MULLIKEN_CHARGES')
gdma(wfn)
dmavals = variable('DMA DISTRIBUTED MULTIPOLES')
charges = np.array(dmavals)
print(charges)
np.save('SSI-018ALA-023VAL-1-dimer.npy', np.array(charges))