import numpy as np

memory 8 GB

set {
scf_type pk
basis aug-cc-pvdz
d_convergence 10
reference rhf
gdma_switch   0
gdma_limit    0
gdma_origin   [ 0.0,  0.0,  0.0 ]
}

molecule test {
0 1 
 C    2.808931067169    1.692352284042    0.923845763998
 C    0.006931067169   -1.342647715958   -0.374154236002
 C    0.467931067169   -0.382647715958   -1.283154236002
 C    0.461931067169   -1.310647715958    0.947845763998
 C    1.393931067169    0.586352284042   -0.862154236002
 C    1.366931067169   -0.333647715958    1.358845763998
 C    1.856931067169    0.614352284042    0.457845763998
 O   -0.897068932831   -2.299647715958   -0.768154236002
 H    0.123931067169   -0.391647715958   -2.307154236002
 H   -1.154068932831   -2.190647715958   -1.703154236002
 H    0.082931067169   -2.025647715958    1.658845763998
 H    1.735931067169    1.327352284042   -1.574154236002
 H    1.674931067169   -0.308647715958    2.395845763998
 H    3.037931067169    1.561352284042    1.982845763998
 H    2.268931067169    2.635352284042    0.838845763998
 H    3.745891067169    1.778572284042    0.354055763998
 C   -3.242068932831    0.572352284042   -0.068154236002
 C   -3.248068932831    2.097352284042   -0.160154236002
 H   -2.538068932831    0.220352284042    0.682845763998
 H   -4.240068932831    0.236352284042    0.211845763998
 H   -2.984068932831    0.142352284042   -1.036154236002
 H   -3.497068932831    2.508352284042    0.818845763998
 H   -4.044068932831    2.384352284042   -0.840154236002
 H   -2.281938932831    2.505572284042   -0.491744236002
}

e, wfn = energy('pbe', return_wfn=True)
wfn.to_file('SSI-033TYR-094ILE-2-dimer_wfn')
oeprop(wfn, 'MULLIKEN_CHARGES')
gdma(wfn)
dmavals = variable('DMA DISTRIBUTED MULTIPOLES')
charges = np.array(dmavals)
print(charges)
np.save('SSI-033TYR-094ILE-2-dimer.npy', np.array(charges))