import numpy as np

memory 8 GB

set {
scf_type pk
basis aug-cc-pvdz
d_convergence 10
reference rhf
gdma_switch   0
gdma_limit    0
gdma_origin   [ 0.0,  0.0,  0.0 ]
}

molecule test {
0 1 
 C   -0.934873764464   -0.255315381811   -1.630184098293
 C   -0.875873764464   -1.429315381811   -2.597184098293
 H   -0.855873764464   -0.626315381811   -0.608184098293
 H   -0.116873764464    0.435684618189   -1.835184098293
 H   -1.882873764464    0.271684618189   -1.746184098293
 H   -1.032873764464   -1.040315381811   -3.604184098293
 H   -1.673530764464   -2.153915381811   -2.376491098293
 H    0.121742235536   -1.892465381811   -2.581337098293
 C    1.104126235536    0.347684618189    1.562815901707
 C    0.704126235536    1.327684618189    2.673815901707
 H    0.895126235536   -0.681315381811    1.857815901707
 H    0.549126235536    0.579684618189    0.657815901707
 H    2.168126235536    0.444684618189    1.339815901707
 H    0.735126235536    2.334684618189    2.253815901707
 H    1.439159635536    1.293494618189    3.491469301707
 H   -0.316672764464    1.144684618189    3.040531501707
}

e, wfn = energy('pbe', return_wfn=True)
wfn.to_file('SSI-042ALA-082ILE-1-dimer_wfn')
oeprop(wfn, 'MULLIKEN_CHARGES')
gdma(wfn)
dmavals = variable('DMA DISTRIBUTED MULTIPOLES')
charges = np.array(dmavals)
print(charges)
np.save('SSI-042ALA-082ILE-1-dimer.npy', np.array(charges))