import numpy as np

memory 8 GB

set {
scf_type pk
basis aug-cc-pvdz
d_convergence 10
reference rhf
gdma_switch   0
gdma_limit    0
gdma_origin   [ 0.0,  0.0,  0.0 ]
}

molecule test {
0 1 
 C   -1.876372275650   -1.190126270637    1.805150307609
 C   -1.457372275650   -2.654126270637    1.697150307609
 H   -1.176372275650   -0.630126270637    2.423150307609
 H   -1.863372275650   -0.748126270637    0.808150307609
 H   -2.888372275650   -1.108126270637    2.205150307609
 H   -0.382372275650   -2.714126270637    1.523150307609
 H   -1.976372275650   -3.092126270637    0.846150307609
 H   -1.733823275650   -3.189076270637    2.617695407609
 C   -0.285372275650   -1.354126270637   -2.615849692391
 C    1.047627724350   -0.723126270637   -0.578849692391
 C    0.067627724350   -0.377126270637   -1.515849692391
 C    1.429627724350    0.165873729363    0.420150307609
 C    0.816627724350    1.418873729363    0.508150307609
 C   -0.536372275650    0.883873729363   -1.424849692391
 C   -0.170372275650    1.776873729363   -0.414849692391
 O    1.187627724350    2.308873729363    1.478150307609
 H    1.526627724350   -1.693126270637   -0.634849692391
 H    2.189627724350   -0.118126270637    1.135150307609
 H    0.108627724350   -2.345126270637   -2.378849692391
 H    0.249627724350   -1.007126270637   -3.501849692391
 H   -1.277372275650    1.193873729363   -2.137849692391
 H    1.864627724350    1.954873729363    2.060150307609
 H   -0.652372275650    2.735873729363   -0.326849692391
 H   -1.354867275650   -1.436566270637   -2.859540692391
}

e, wfn = energy('pbe', return_wfn=True)
wfn.to_file('SSI-062ILE-069TYR-1-dimer_wfn')
oeprop(wfn, 'MULLIKEN_CHARGES')
gdma(wfn)
dmavals = variable('DMA DISTRIBUTED MULTIPOLES')
charges = np.array(dmavals)
print(charges)
np.save('SSI-062ILE-069TYR-1-dimer.npy', np.array(charges))