import numpy as np

memory 8 GB

set {
scf_type pk
basis aug-cc-pvdz
d_convergence 10
reference rhf
gdma_switch   0
gdma_limit    0
gdma_origin   [ 0.0,  0.0,  0.0 ]
}

molecule test {
0 1 
 C    0.146490153113   -0.755689018362    1.822671628200
 C   -0.736509846887   -1.794689018362    2.517671628200
 H    0.384490153113    0.065310981638    2.496671628200
 H    1.073490153113   -1.219689018362    1.492671628200
 H   -0.379509846887   -0.359689018362    0.954671628200
 H   -0.868509846887   -2.636689018362    1.845671628200
 H   -1.722179846887   -1.370930018362    2.760330628200
 H   -0.239714846887   -2.144458018362    3.434653728200
 C    0.340490153113    1.196310981638   -1.412328371800
 C    0.254490153113    1.355310981638   -2.928328371800
 H    1.168490153113    1.781310981638   -1.014328371800
 H   -0.587509846887    1.544310981638   -0.956328371800
 H    0.472490153113    0.148310981638   -1.142328371800
 H   -0.562509846887    0.730310981638   -3.268328371800
 H    1.191041153113    1.049527981638   -3.417582371800
 H    0.010867153113    2.397560981638   -3.182042371800
}

e, wfn = energy('pbe', return_wfn=True)
wfn.to_file('SSI-120THR-143VAL-1-dimer_wfn')
oeprop(wfn, 'MULLIKEN_CHARGES')
gdma(wfn)
dmavals = variable('DMA DISTRIBUTED MULTIPOLES')
charges = np.array(dmavals)
print(charges)
np.save('SSI-120THR-143VAL-1-dimer.npy', np.array(charges))