import numpy as np

memory 8 GB

set {
scf_type pk
basis aug-cc-pvdz
d_convergence 10
reference rhf
gdma_switch   0
gdma_limit    0
gdma_origin   [ 0.0,  0.0,  0.0 ]
}

molecule test {
0 1 
 C   -0.892924424860   -1.365138420746   -0.983847864050
 C   -1.244924424860   -0.317138420746   -1.982847864050
 H   -0.096924424860   -2.026138420746   -1.296847864050
 H   -0.580924424860   -0.879138420746   -0.061847864050
 H   -1.771924424860   -1.920138420746   -0.744847864050
 H   -0.390924424860    0.341861579254   -2.037847864050
 H   -2.102924424860    0.252861579254   -1.620847864050
 H   -1.484844424860   -0.775948420746   -2.953377864050
 C    1.076075575140    1.216861579254    0.807152135950
 C    1.064075575140    0.466861579254    2.151152135950
 H    1.815075575140    2.016861579254    0.801152135950
 H    1.320075575140    0.521861579254    0.005152135950
 H    0.085075575140    1.632861579254    0.626152135950
 H    2.018075575140   -0.040138420746    2.292152135950
 H    0.278075575140   -0.284138420746    2.090152135950
 H    0.884675575140    1.142111579254    3.000772135950
}

e, wfn = energy('pbe', return_wfn=True)
wfn.to_file('SSI-012ILE-044ILE-1-dimer_wfn')
oeprop(wfn, 'MULLIKEN_CHARGES')
gdma(wfn)
dmavals = variable('DMA DISTRIBUTED MULTIPOLES')
charges = np.array(dmavals)
print(charges)
np.save('SSI-012ILE-044ILE-1-dimer.npy', np.array(charges))