import numpy as np
set {scf_type pk
basis cc-pvdz
d_convergence 10
gdma_switch   0
gdma_limit    0
gdma_origin   [ 0.0,  0.0,  0.0 ]
}
molecule test {
    units Angstrom
    0 1
    --
    0 1
    C                2.505505242400061    -1.958774857906064     1.295836734865227
    C                3.308505242400061    -2.386774857906064     0.089836734865227
    H                1.692505242400060    -2.662774857906064     1.443836734865227
    H                3.141505242400060    -1.956774857906064     2.180836734865227
    H                2.084505242400060    -0.970774857906064     1.135836734865227
    H                3.567505242400060    -3.441774857906064     0.199836734865227
    H                4.232505242400061    -1.827774857906064     0.094836734865227
    H                2.773150242400061    -2.229614857906064    -0.858158265134773
    C               -1.077494757599940    -1.017774857906064     1.005836734865227
    C               -2.508494757599940    -0.943774857906064     1.532836734865227
    C               -0.721494757599940     0.126225142093936     0.101836734865227
    C               -0.582494757599940     1.407225142093936     0.619836734865227
    C               -0.659494757599940    -0.059774857906064    -1.274163265134773
    C               -0.278494757599940     2.474225142093936    -0.213163265134773
    C               -0.324494757599940     1.000225142093936    -2.108163265134773
    C               -0.145494757599940     2.269225142093936    -1.577163265134773
    H               -0.389494757599940    -1.029774857906064     1.850836734865227
    H               -0.962494757599940    -1.954774857906064     0.465836734865227
    H               -2.561494757599940    -0.068774857906064     2.182836734865227
    H               -0.679494757599940     1.576225142093936     1.683836734865227
    H               -0.830494757599940    -1.038774857906064    -1.699163265134773
    H               -0.153494757599940     3.466225142093936     0.198836734865227
    H               -0.247494757599940     0.845225142093936    -3.176163265134773
    H                0.062505242400060     3.100225142093936    -2.234163265134773
    H               -2.749062757599939    -1.859294857906064     2.093156734865226
    H               -3.218374757599940    -0.785224857906064     0.707648734865227

}
e, wfn = energy('scf', return_wfn=True)
gdma(wfn)
dmavals = variable('DMA DISTRIBUTED MULTIPOLES')
charges = np.array(dmavals)
print(charges)
np.save('SSI-041ILE-107PHE-2-dimer.npy', np.array(charges))