import numpy as np
set {scf_type pk
basis cc-pvdz
d_convergence 10
gdma_switch   0
gdma_limit    0
gdma_origin   [ 0.0,  0.0,  0.0 ]
}
molecule test {
    units Angstrom
    -1 1
    --
    -1 1
    C               -2.845986255829312     1.520201086841075     0.250379764441221
    C               -1.917986255829311     0.548201086841075     0.908379764441221
    C               -1.915986255829311    -0.808798913158925     0.883379764441221
    C               -0.162986255829312    -0.144798913158925     2.039379764441221
    N               -0.801986255829312     0.946201086841075     1.622379764441221
    N               -0.818986255829312    -1.218798913158925     1.611379764441221
    H               -3.514986255829311     0.973201086841075    -0.411620235558779
    H               -2.239986255829312     2.176201086841075    -0.375620235558779
    H               -2.641986255829312    -1.434798913158925     0.379379764441221
    H                0.750013744170688    -0.157798913158925     2.626379764441221
    H               -0.534986255829312    -2.177798913158925     1.780379764441221
    H               -3.430546255829312     2.138641086841075     0.947389764441221
    C                0.973013744170688     0.687201086841075    -1.638620235558779
    C                1.686013744170688     1.806201086841075    -0.890620235558779
    C                1.604013744170688    -0.703798913158925    -1.464620235558779
    O                2.675013744170688    -0.870798913158925    -0.829620235558779
    O                1.011013744170688    -1.662798913158925    -1.997620235558779
    H               -0.052986255829312     0.645201086841075    -1.269620235558779
    H                0.918013744170688     0.941201086841075    -2.698620235558779
    H                1.993013744170688     1.471201086841075     0.101379764441221
    H                0.957013744170688     2.605201086841075    -0.745620235558779
    H                2.538323744170688     2.234871086841075    -1.438170235558779

}
e, wfn = energy('scf', return_wfn=True)
gdma(wfn)
dmavals = variable('DMA DISTRIBUTED MULTIPOLES')
charges = np.array(dmavals)
print(charges)
np.save('SSI-067HIE-086GLU-1-dimer.npy', np.array(charges))