import numpy as np
set {scf_type pk
basis cc-pvdz
d_convergence 10
gdma_switch   0
gdma_limit    0
gdma_origin   [ 0.0,  0.0,  0.0 ]
}
molecule test {
    units Angstrom
    0 1
    --
    0 1
    C                1.343246733410535     0.515174153643516    -0.239563554130580
    C                2.834246733410535     0.878174153643515    -0.094563554130580
    C                0.588246733410535     1.422174153643516    -1.189563554130580
    C                0.833246733410535     1.356174153643515    -2.567563554130581
    C               -0.355753266589465     2.324174153643516    -0.691563554130580
    C                0.131246733410535     2.195174153643515    -3.432563554130581
    C               -1.074753266589465     3.159174153643515    -1.549563554130580
    C               -0.811753266589465     3.070174153643515    -2.908563554130581
    H                1.247246733410535    -0.515825846356484    -0.583563554130580
    H                0.872246733410535     0.572174153643515     0.743436445869420
    H                2.912246733410535     1.952174153643516     0.071436445869420
    H                1.537246733410535     0.644174153643515    -2.969563554130580
    H               -0.540753266589465     2.377174153643516     0.372436445869420
    H                0.298246733410535     2.141174153643515    -4.498563554130580
    H               -1.809753266589465     3.854174153643516    -1.166563554130580
    H               -1.349753266589465     3.708174153643516    -3.589563554130581
    H                3.399226733410535     0.578357153643515    -0.989493554130580
    H                3.234696733410535     0.340135953643516     0.777306445869420
    C                1.130246733410535    -3.385825846356484     0.536436445869420
    C                0.079246733410535    -2.632825846356485     1.316436445869420
    C                0.384246733410535    -2.078825846356485     2.569436445869420
    C               -1.197753266589465    -2.437825846356485     0.797436445869420
    C               -0.573753266589465    -1.330825846356484     3.253436445869419
    C               -2.152753266589464    -1.675825846356484     1.465436445869420
    C               -1.822753266589465    -1.125825846356485     2.702436445869420
    H                2.082246733410535    -2.876825846356484     0.623436445869420
    H                0.863246733410535    -3.347825846356484    -0.520563554130580
    H                1.371246733410535    -2.190825846356485     2.975436445869419
    H               -1.447753266589465    -2.861825846356485    -0.165563554130580
    H               -0.333753266589465    -0.895825846356485     4.213436445869419
    H               -3.129753266589465    -1.513825846356485     1.030436445869420
    H               -2.548753266589465    -0.532825846356485     3.241436445869419
    H                1.263976733410535    -4.439916846356484     0.821056445869420

}
e, wfn = energy('scf', return_wfn=True)
gdma(wfn)
dmavals = variable('DMA DISTRIBUTED MULTIPOLES')
charges = np.array(dmavals)
print(charges)
np.save('SSI-058PHE-081PHE-1-dimer.npy', np.array(charges))