import numpy as np
set {scf_type pk
basis cc-pvdz
d_convergence 10
gdma_switch   0
gdma_limit    0
gdma_origin   [ 0.0,  0.0,  0.0 ]
}
molecule test {
    units Angstrom
    0 1
    --
    0 1
    C               -1.218599035653399     3.348697159420136     1.742122796546856
    C               -0.181599035653399     2.534697159420136    -0.417877203453143
    C               -0.098599035653399     2.678697159420136     0.971122796546857
    C                0.833400964346601     1.882697159420136    -1.122877203453144
    C                1.930400964346601     1.367697159420136    -0.436877203453144
    C                1.015400964346602     2.159697159420136     1.646122796546856
    C                2.023400964346601     1.505697159420136     0.944122796546857
    H               -1.038599035653399     2.919697159420136    -0.950877203453143
    H                0.782400964346602     1.781697159420136    -2.193877203453143
    H               -1.779599035653398     3.988697159420136     1.060122796546856
    H               -0.787599035653399     3.991697159420136     2.511122796546857
    H                2.698400964346602     0.853697159420136    -0.982877203453143
    H                1.103400964346601     2.262697159420136     2.719122796546856
    H                2.877400964346602     1.096697159420136     1.461122796546857
    H               -1.912109035653399     2.629317159420136     2.202062796546856
    C                0.738400964346601    -2.204302840579864     1.572122796546856
    C               -0.842599035653398    -1.102302840579864    -0.057877203453143
    C               -0.051599035653399    -2.205302840579864     0.290122796546857
    C               -1.623599035653399    -1.134302840579864    -1.229877203453144
    C               -0.041599035653399    -3.336302840579864    -0.543877203453143
    C               -1.607599035653398    -2.266302840579864    -2.056877203453143
    C               -0.814599035653399    -3.371302840579864    -1.715877203453144
    H               -0.859599035653399    -0.227302840579864     0.575122796546856
    H               -2.242599035653399    -0.288302840579864    -1.486877203453144
    H                0.863400964346602    -1.182302840579864     1.933122796546856
    H                1.731400964346602    -2.599302840579864     1.352122796546857
    H                0.571400964346601    -4.188302840579865    -0.285877203453143
    H               -2.207599035653398    -2.285302840579864    -2.955877203453143
    H               -0.792599035653399    -4.241302840579864    -2.356877203453144
    H                0.270780964346601    -2.818452840579864     2.355802796546857

}
e, wfn = energy('scf', return_wfn=True)
gdma(wfn)
dmavals = variable('DMA DISTRIBUTED MULTIPOLES')
charges = np.array(dmavals)
print(charges)
np.save('SSI-038PHE-042PHE-1-dimer.npy', np.array(charges))