import numpy as np
set {scf_type pk
basis cc-pvdz
d_convergence 10
gdma_switch   0
gdma_limit    0
gdma_origin   [ 0.0,  0.0,  0.0 ]
}
molecule test {
    units Angstrom
    0 1
    --
    0 1
    C                1.976740895224443    -1.906859883396427     0.785241150851706
    C                2.869740895224443    -0.945859883396427     1.583241150851706
    C                0.961740895224443    -2.690859883396427     1.626241150851706
    H                1.441740895224443    -1.335859883396427     0.028241150851706
    H                2.610740895224443    -2.626859883396427     0.267241150851706
    H                2.253740895224443    -0.131859883396427     1.968241150851706
    H                1.493740895224443    -3.343859883396427     2.319241150851706
    H                3.642980895224443    -0.512753883396427     0.931692250851706
    H                3.329710895224443    -1.455497883396427     2.442715650851706
    H                0.322860895224443    -2.010830883396427     2.208814050851706
    H                0.345160895224443    -3.329179883396427     0.976332350851706
    C               -2.851259104775557    -0.445859883396427    -1.331758849148294
    C                0.646740895224443     0.996140116603573    -1.172758849148294
    C                0.534740895224443     1.895140116603574    -0.119758849148294
    C               -0.448259104775557     0.234140116603573    -1.562758849148294
    C               -1.669259104775557     0.376140116603573    -0.914758849148294
    C               -0.679259104775557     2.036140116603574     0.543241150851706
    C               -1.775259104775557     1.272140116603574     0.143241150851706
    H                1.593740895224443     0.882140116603573    -1.682758849148294
    H                1.392740895224443     2.478140116603573     0.180241150851706
    H               -0.346259104775557    -0.462859883396427    -2.380758849148294
    H               -0.778259104775557     2.734140116603573     1.363241150851706
    H               -3.338259104775557    -0.833859883396427    -0.439758849148294
    H               -2.497259104775557    -1.300859883396427    -1.908758849148294
    H               -2.713259104775557     1.380140116603573     0.668241150851706
    H               -3.591169104775557     0.101345116603573    -1.934331849148294

}
e, wfn = energy('scf', return_wfn=True)
gdma(wfn)
dmavals = variable('DMA DISTRIBUTED MULTIPOLES')
charges = np.array(dmavals)
print(charges)
np.save('SSI-006LEU-108PHE-1-dimer.npy', np.array(charges))