import numpy as np
set {scf_type pk
basis cc-pvdz
d_convergence 10
gdma_switch   0
gdma_limit    0
gdma_origin   [ 0.0,  0.0,  0.0 ]
}
molecule test {
    units Angstrom
    1 1
    --
    1 1
    C               -0.513971457013586    -2.699111513754644     0.013757877578509
    C                0.237028542986414    -0.756111513754644     1.344757877578509
    N                0.447028542986414    -1.664111513754645     0.406757877578509
    N               -0.904971457013586    -0.735111513754645     2.007757877578509
    N                1.161028542986414     0.145888486245355     1.605757877578509
    H                1.390028542986414    -1.708111513754645     0.013757877578509
    H               -1.594971457013586    -1.447111513754644     1.846757877578509
    H               -1.063971457013586    -0.044111513754645     2.724757877578508
    H                2.014028542986414     0.151888486245356     1.039757877578509
    H                1.027028542986414     0.837888486245356     2.323757877578509
    H               -1.539971457013586    -2.412111513754644     0.245757877578509
    H               -0.280971457013586    -3.615111513754644     0.562757877578509
    H               -0.455451457013586    -2.910085513754645    -1.064232122421492
    C               -0.657971457013586     1.733888486245355    -1.468242122421491
    C                0.102028542986414     3.055888486245355    -1.473242122421491
    C                0.109028542986414     0.926888486245355    -2.501242122421492
    H               -1.688971457013586     1.889888486245356    -1.787242122421491
    H               -0.634971457013586     1.264888486245356    -0.485242122421491
    H               -0.556971457013586     3.870888486245355    -1.172242122421491
    H                0.967028542986414     2.987888486245355    -0.810242122421491
    H               -0.444971457013586     0.046888486245355    -2.827242122421491
    H                1.036028542986414     0.645888486245355    -2.020242122421491
    H                0.434098542986414     3.153865486245355    -2.517332122421491
    H                0.242908542986414     1.668681486245355    -3.302382122421491

}
e, wfn = energy('scf', return_wfn=True)
gdma(wfn)
dmavals = variable('DMA DISTRIBUTED MULTIPOLES')
charges = np.array(dmavals)
print(charges)
np.save('SSI-033ARG-189PRO-1-dimer.npy', np.array(charges))