import numpy as np
set {scf_type pk
basis cc-pvdz
d_convergence 10
gdma_switch   0
gdma_limit    0
gdma_origin   [ 0.0,  0.0,  0.0 ]
}
molecule test {
    units Angstrom
    0 1
    --
    0 1
    C                2.040771360625863    -1.485137585601841     0.549794366807123
    C               -1.564228639374137    -0.341137585601841     0.313794366807123
    C               -0.373228639374137    -1.010137585601841     0.057794366807123
    C               -1.631228639374137     0.585862414398159     1.341794366807122
    C                0.753771360625863    -0.766137585601841     0.831794366807123
    C               -0.506228639374137     0.834862414398159     2.119794366807123
    C                0.683771360625863     0.164862414398159     1.861794366807122
    H               -2.430228639374137    -0.571137585601841    -0.278205633192877
    H               -0.327228639374137    -1.727137585601841    -0.749205633192877
    H               -2.556228639374137     1.102862414398159     1.555794366807123
    H               -0.552228639374137     1.555862414398159     2.921794366807123
    H                2.861771360625863    -0.817137585601841     0.817794366807122
    H                2.122771360625863    -1.693137585601841    -0.514205633192877
    H                1.552771360625863     0.372862414398159     2.467794366807123
    H                2.153084360625864    -2.444120585601841     1.076804366807123
    C               -0.376228639374137     1.463862414398159    -2.882205633192878
    C                0.659771360625863     0.428862414398159    -3.261205633192877
    H               -0.855228639374137     1.175862414398159    -1.948205633192877
    H                0.111771360625863     2.425862414398158    -2.727205633192877
    H               -1.095228639374137     1.582862414398159    -3.685205633192878
    H                0.187771360625863    -0.553137585601841    -3.273205633192878
    H                1.080042360625863     0.648008414398159    -4.253855633192878
    H                1.473913360625863     0.420909414398159    -2.521535633192877

}
e, wfn = energy('scf', return_wfn=True)
gdma(wfn)
dmavals = variable('DMA DISTRIBUTED MULTIPOLES')
charges = np.array(dmavals)
print(charges)
np.save('SSI-021PHE-097LEU-2-dimer.npy', np.array(charges))