import numpy as np
set {scf_type pk
basis cc-pvdz
d_convergence 10
gdma_switch   0
gdma_limit    0
gdma_origin   [ 0.0,  0.0,  0.0 ]
}
molecule test {
    units Angstrom
    0 1
    --
    0 1
    C                1.496961356299588     3.179860054535528     1.323713673491872
    C               -0.601038643700412     0.065860054535528    -0.813286326508127
    C               -1.324038643700412     1.008860054535528    -0.087286326508128
    C                0.796961356299588     0.136860054535528    -0.848286326508128
    C               -0.646038643700412     2.025860054535527     0.595713673491872
    C                1.465961356299588     1.149860054535528    -0.150286326508128
    C                0.753961356299588     2.096860054535528     0.573713673491872
    H               -1.116038643700412    -0.714139945464472    -1.357286326508128
    H               -2.403038643700412     0.967860054535528    -0.056286326508128
    H                1.359961356299588    -0.594139945464472    -1.411286326508127
    H               -1.217038643700412     2.766860054535528     1.135713673491872
    H                2.546961356299588     1.191860054535528    -0.179286326508128
    H                0.857961356299588     4.062860054535528     1.349713673491872
    H                2.388961356299588     3.460860054535528     0.765713673491872
    H                1.771781356299588     2.912160054535528     2.354643673491872
    C               -0.814038643700412    -3.615139945464473    -0.063286326508128
    C               -1.013038643700412    -5.046139945464472    -0.584286326508128
    H                0.150961356299588    -3.227139945464472    -0.391286326508128
    H               -1.598038643700412    -2.976139945464472    -0.459286326508128
    H               -0.867038643700412    -3.603139945464472     1.022713673491872
    H               -1.916038643700412    -5.450139945464472    -0.126286326508128
    H               -0.163388643700412    -5.699549945464472    -0.337006326508128
    H               -1.173018643700412    -5.037529945464472    -1.672556326508128

}
e, wfn = energy('scf', return_wfn=True)
gdma(wfn)
dmavals = variable('DMA DISTRIBUTED MULTIPOLES')
charges = np.array(dmavals)
print(charges)
np.save('SSI-042PHE-061LEU-1-dimer.npy', np.array(charges))