import numpy as np
set {scf_type pk
basis cc-pvdz
d_convergence 10
gdma_switch   0
gdma_limit    0
gdma_origin   [ 0.0,  0.0,  0.0 ]
}
molecule test {
    units Angstrom
    0 1
    --
    0 1
    C               -0.542232202314902     1.276255022032299     1.545599437464361
    C               -0.191232202314901     2.191255022032299     0.383599437464361
    C                0.629767797685098     1.364255022032299     2.465599437464361
    H               -0.735232202314901     0.257255022032299     1.218599437464361
    H               -1.425232202314902     1.668255022032299     2.051599437464361
    H                0.327767797685099     1.631255022032299    -0.392400562535639
    H               -1.097232202314901     2.641255022032299    -0.002400562535639
    H                1.352767797685098     0.603255022032299     2.162599437464361
    H                0.339767797685099     1.191255022032299     3.494599437464361
    H                0.472438797685099     2.948884022032299     0.825799437464361
    H                1.044565797685099     2.373980022032299     2.329969437464361
    C                0.012767797685099    -1.554744977967701    -0.827400562535639
    C               -0.785232202314901    -0.766744977967701    -1.848400562535639
    C                0.839767797685098    -2.535744977967701    -1.666400562535639
    H               -0.687232202314901    -2.097744977967701    -0.193400562535639
    H                0.652767797685099    -0.905744977967701    -0.230400562535639
    H               -1.684232202314901    -0.333744977967701    -1.409400562535639
    H               -0.175232202314901     0.010255022032299    -2.292400562535639
    H                1.741767797685098    -2.030744977967701    -2.015400562535639
    H               -1.025836202314901    -1.531016977967701    -2.602060562535639
    H                0.204253797685099    -2.737578977967701    -2.541260562535639
    H                1.127459797685099    -3.385807977967701    -1.030300562535639

}
e, wfn = energy('scf', return_wfn=True)
gdma(wfn)
dmavals = variable('DMA DISTRIBUTED MULTIPOLES')
charges = np.array(dmavals)
print(charges)
np.save('SSI-078PRO-115PRO-1-dimer.npy', np.array(charges))