import numpy as np
set {scf_type pk
basis cc-pvdz
d_convergence 10
gdma_switch   0
gdma_limit    0
gdma_origin   [ 0.0,  0.0,  0.0 ]
}
molecule test {
    units Angstrom
    1 1
    --
    1 1
    C               -3.642865152788759     1.144960045310326    -0.468025996975187
    C                0.155134847211241     1.660960045310326    -0.250025996975187
    C               -1.228865152788759     1.715960045310326     0.026974003024813
    C                0.610134847211241     1.014960045310326    -1.391025996975187
    C               -2.162865152788759     1.126960045310326    -0.817025996975187
    C               -0.308865152788759     0.436960045310326    -2.260025996975187
    C               -1.698865152788759     0.485960045310326    -1.971025996975187
    H                0.873134847211241     2.119960045310326     0.419974003024813
    H               -1.587865152788759     2.220960045310326     0.908974003024813
    H                1.670134847211241     0.964960045310326    -1.601025996975187
    H                0.053134847211241    -0.052039954689674    -3.157025996975187
    H               -4.195865152788759     0.991960045310326    -1.397025996975187
    H               -3.870865152788759     2.139960045310326    -0.085025996975187
    H               -2.412865152788759     0.025960045310326    -2.643025996975187
    H               -3.943655152788758     0.409700045310326     0.292834003024813
    C               -0.077865152788759    -1.274039954689674     2.451974003024813
    C                1.906134847211241    -1.367039954689674     0.948974003024813
    N                0.732134847211241    -1.842039954689674     1.356974003024813
    N                2.458134847211241    -0.346039954689674     1.567974003024813
    N                2.549134847211242    -1.947039954689674    -0.054025996975187
    H                0.339134847211241    -2.629039954689674     0.858974003024813
    H                1.992134847211241     0.074960045310326     2.356974003024813
    H                3.346134847211241     0.013960045310326     1.256974003024813
    H                2.154134847211241    -2.758039954689674    -0.511025996975187
    H                3.441134847211241    -1.592039954689674    -0.370025996975187
    H               -0.265865152788759    -0.218039954689674     2.236974003024813
    H                0.486134847211241    -1.348039954689674     3.381974003024813
    H               -1.038935152788759    -1.797229954689674     2.564284003024813

}
e, wfn = energy('scf', return_wfn=True)
gdma(wfn)
dmavals = variable('DMA DISTRIBUTED MULTIPOLES')
charges = np.array(dmavals)
print(charges)
np.save('SSI-077PHE-201ARG-1-dimer.npy', np.array(charges))