import numpy as np
set {scf_type pk
basis cc-pvdz
d_convergence 10
gdma_switch   0
gdma_limit    0
gdma_origin   [ 0.0,  0.0,  0.0 ]
}
molecule test {
    units Angstrom
    0 1
    --
    0 1
    C               -1.017204147767318     0.886156385551346     2.010731045320805
    C               -1.879204147767318     0.928156385551346     3.278731045320805
    C               -0.226204147767318    -0.383843614448654     1.873731045320805
    C               -0.623204147767318    -1.387843614448654     0.986731045320805
    C                0.936795852232682    -0.553843614448654     2.628731045320805
    C                0.138795852232682    -2.577843614448654     0.847731045320805
    C                1.698795852232682    -1.722843614448655     2.491731045320805
    C                1.304795852232682    -2.726843614448654     1.613731045320805
    O                2.059795852232682    -3.875843614448654     1.502731045320805
    H               -1.666204147767318     0.996156385551346     1.142731045320805
    H               -0.326204147767318     1.730156385551346     2.015731045320805
    H               -1.207204147767318     0.866156385551346     4.131731045320805
    H               -1.514204147767318    -1.250843614448655     0.389731045320805
    H                1.261795852232682     0.223156385551346     3.305731045320805
    H               -0.165204147767318    -3.342843614448654     0.148731045320805
    H                2.602795852232681    -1.851843614448655     3.069731045320805
    H                1.707795852232682    -4.479843614448654     0.839731045320805
    H               -2.581284147767318     0.081756385551346     3.305040045320805
    H               -2.402694147767318     1.894656385551345     3.321509045320805
    C               -2.631204147767318     2.845156385551346    -1.046268954679195
    C               -1.197204147767318     2.448156385551346    -1.288268954679195
    C               -0.105204147767318     3.245156385551346    -1.115268954679195
    C               -0.713204147767318     1.172156385551345    -1.754268954679195
    C                0.704795852232682     1.271156385551345    -1.827268954679195
    C               -1.328204147767318    -0.034843614448654    -2.131268954679195
    C                1.515795852232682     0.224156385551346    -2.248268954679195
    C               -0.520204147767318    -1.086843614448655    -2.573268954679195
    C                0.888795852232682    -0.952843614448654    -2.619268954679195
    N                1.032795852232682     2.541156385551346    -1.430268954679195
    H               -2.667204147767318     3.798156385551346    -0.519268954679195
    H               -3.096204147767318     2.086156385551345    -0.416268954679195
    H               -0.137204147767318     4.279156385551345    -0.783268954679195
    H                1.968795852232682     2.928156385551346    -1.389268954679195
    H               -2.399204147767318    -0.142843614448654    -2.072268954679195
    H                2.591795852232682     0.326156385551346    -2.279268954679195
    H               -0.971204147767318    -2.024843614448655    -2.863268954679195
    H                1.486795852232682    -1.791843614448654    -2.950268954679195
    H               -3.180994147767318     2.916306385551346    -1.996358954679195

}
e, wfn = energy('scf', return_wfn=True)
gdma(wfn)
dmavals = variable('DMA DISTRIBUTED MULTIPOLES')
charges = np.array(dmavals)
print(charges)
np.save('SSI-019TYR-050TRP-1-dimer.npy', np.array(charges))