import numpy as np
set {scf_type pk
basis cc-pvdz
d_convergence 10
gdma_switch   0
gdma_limit    0
gdma_origin   [ 0.0,  0.0,  0.0 ]
}
molecule test {
    units Angstrom
    -1 1
    --
    -1 1
    C                0.548710181993418     2.477304546613299    -1.388813651712079
    O               -0.007289818006582     2.460304546613298    -0.087813651712078
    H               -0.029289818006582     1.540304546613299     0.247186348287922
    H                1.320710181993418     1.710304546613298    -1.460813651712078
    H                1.001710181993418     3.453304546613299    -1.571813651712078
    H               -0.230859818006582     2.289084546613299    -2.141703651712079
    C               -0.315289818006582    -1.425695453386701    -1.033813651712079
    C               -0.139289818006582    -1.320695453386702     0.475186348287922
    O                0.039710181993418    -0.185695453386701     0.972186348287921
    O               -0.169289818006582    -2.365695453386701     1.154186348287922
    H                0.409710181993418    -2.132695453386702    -1.433813651712078
    H               -0.090289818006582    -0.465695453386701    -1.491813651712078
    H               -1.330269818006582    -1.745035453386701    -1.312793651712078

}
e, wfn = energy('scf', return_wfn=True)
gdma(wfn)
dmavals = variable('DMA DISTRIBUTED MULTIPOLES')
charges = np.array(dmavals)
print(charges)
np.save('SSI-075SER-111ASP-1-dimer.npy', np.array(charges))