import numpy as np
set {scf_type pk
basis cc-pvdz
d_convergence 10
gdma_switch   0
gdma_limit    0
gdma_origin   [ 0.0,  0.0,  0.0 ]
}
molecule test {
    units Angstrom
    0 1
    --
    0 1
    C                3.591660191434557     2.291208844155104    -1.237990911662312
    C                1.464660191434557     0.353208844155104     1.219009088337688
    C                2.046660191434557    -0.911791155844896     1.217009088337688
    C                1.970660191434557     1.373208844155104     0.434009088337688
    C                3.074660191434557     1.158208844155104    -0.371990911662312
    C                3.157660191434557    -1.144791155844896     0.407009088337688
    C                3.661660191434557    -0.108791155844896    -0.374990911662312
    H                0.606660191434557     0.543208844155104     1.841009088337688
    H                1.634660191434557    -1.693791155844896     1.842009088337688
    H                1.502660191434557     2.344208844155105     0.451009088337688
    H                3.624660191434557    -2.118791155844896     0.387009088337688
    H                3.638660191434557     3.179208844155104    -0.611990911662312
    H                2.851660191434557     2.455208844155104    -2.024990911662312
    H                4.521660191434557    -0.293791155844896    -0.991990911662312
    H                4.580710191434557     2.123978844155104    -1.689450911662312
    C               -2.554339808565443    -2.803791155844896    -0.901990911662312
    C               -1.771339808565443     0.885208844155104    -0.375990911662312
    C               -2.820339808565443     1.309208844155104     0.438009088337688
    C               -1.706339808565443    -0.448791155844896    -0.822990911662312
    C               -2.686339808565444    -1.365791155844896    -0.473990911662312
    C               -3.805339808565444     0.399208844155104     0.781009088337688
    C               -3.742339808565444    -0.930791155844896     0.329009088337688
    H               -1.002339808565443     1.589208844155104    -0.659990911662312
    H               -2.863339808565443     2.331208844155104     0.792009088337688
    H               -0.885339808565443    -0.777791155844896    -1.442990911662312
    H               -4.628339808565443     0.717208844155104     1.405009088337688
    H               -1.893339808565443    -2.823791155844896    -1.769990911662312
    H               -3.546339808565443    -3.136791155844896    -1.204990911662312
    H               -4.511339808565443    -1.629791155844896     0.610009088337688
    H               -2.216929808565443    -3.462871155844895    -0.088500911662312

}
e, wfn = energy('scf', return_wfn=True)
gdma(wfn)
dmavals = variable('DMA DISTRIBUTED MULTIPOLES')
charges = np.array(dmavals)
print(charges)
np.save('SSI-149PHE-165PHE-1-dimer.npy', np.array(charges))