import numpy as np
set {scf_type pk
basis cc-pvdz
d_convergence 10
gdma_switch   0
gdma_limit    0
gdma_origin   [ 0.0,  0.0,  0.0 ]
}
molecule test {
    units Angstrom
    0 1
    --
    0 1
    C               -2.467447122320030     0.937560122016164     4.477439363258799
    C               -0.250447122320030    -0.310439877983836     1.642439363258799
    C                0.725552877679970    -1.027439877983836     2.343439363258798
    C               -1.291447122320030     0.324560122016164     2.337439363258798
    C               -1.362447122320031     0.246560122016164     3.729439363258798
    C                0.654552877679970    -1.108439877983836     3.734439363258798
    C               -0.388447122320030    -0.473439877983836     4.422439363258798
    H               -0.204447122320030    -0.239439877983836     0.568439363258799
    H                1.536552877679970    -1.508439877983836     1.812439363258798
    H               -2.035447122320031     0.879560122016164     1.787439363258799
    H                1.413552877679970    -1.647439877983836     4.281439363258800
    H               -2.690447122320031     1.882560122016164     3.977439363258799
    H               -2.120447122320031     1.171560122016164     5.485439363258799
    H               -0.429447122320030    -0.537439877983836     5.500439363258799
    H               -3.388317122320031     0.342168122016164     4.564041863258799
    C               -1.341447122320030    -0.991439877983836    -4.060560636741202
    C                1.430552877679970     0.280560122016164    -1.780560636741201
    C                2.182552877679969     1.061560122016164    -2.661560636741202
    C                0.282552877679970    -0.377439877983836    -2.235560636741202
    C               -0.120447122320030    -0.261439877983836    -3.566560636741201
    C                1.782552877679970     1.182560122016164    -3.991560636741202
    C                0.634552877679970     0.523560122016164    -4.441560636741202
    H                1.738552877679970     0.188560122016164    -0.747560636741201
    H                3.068552877679970     1.574560122016164    -2.310560636741202
    H               -0.295447122320030    -0.985439877983836    -1.556560636741201
    H                2.364552877679969     1.782560122016164    -4.675560636741201
    H               -1.572447122320030    -1.820439877983836    -3.393560636741201
    H               -1.094447122320030    -1.425439877983836    -5.031560636741202
    H                0.336552877679969     0.618560122016164    -5.476560636741201
    H               -2.232447122320031    -0.357472877983836    -4.179743636741201

}
e, wfn = energy('scf', return_wfn=True)
gdma(wfn)
dmavals = variable('DMA DISTRIBUTED MULTIPOLES')
charges = np.array(dmavals)
print(charges)
np.save('SSI-149PHE-164PHE-1-dimer.npy', np.array(charges))