import numpy as np
set {scf_type pk
basis cc-pvdz
d_convergence 10
gdma_switch   0
gdma_limit    0
gdma_origin   [ 0.0,  0.0,  0.0 ]
}
molecule test {
    units Angstrom
    0 1
    --
    0 1
    C               -2.357505600651154     0.651025666640867    -1.956621458311373
    C               -3.013505600651154     0.700025666640867    -3.329621458311373
    H               -1.335505600651154     0.284025666640867    -2.044621458311373
    H               -2.341505600651154     1.653025666640867    -1.532621458311374
    H               -2.924505600651154    -0.006974333359133    -1.304621458311373
    H               -4.005505600651154     1.131025666640867    -3.203621458311373
    H               -3.084695600651154    -0.313864333359133    -3.750281458311373
    H               -2.439795600651154     1.346085666640867    -4.010401458311374
    C                1.026494399348846     0.776025666640867     3.105378541688627
    C                0.766494399348846    -0.972974333359133    -0.836621458311373
    C                0.107494399348846    -1.570974333359133     0.235378541688627
    C                1.508494399348846     0.188025666640867    -0.631621458311373
    C                0.190494399348846    -1.004974333359133     1.511378541688627
    C                1.591494399348846     0.747025666640867     0.645378541688627
    C                0.932494399348846     0.159025666640867     1.725378541688627
    H                0.694494399348846    -1.400974333359132    -1.826621458311373
    H               -0.469505600651154    -2.471974333359132     0.079378541688627
    H                2.000494399348846     0.666025666640867    -1.463621458311373
    H               -0.334505600651154    -1.468974333359133     2.334378541688627
    H                2.170494399348846     1.646025666640867     0.799378541688627
    H                0.019494399348846     0.950025666640867     3.478378541688627
    H                1.534494399348846     1.739025666640867     3.029378541688627
    H                1.556764399348846     0.150185666640867     3.838278541688627

}
e, wfn = energy('scf', return_wfn=True)
gdma(wfn)
dmavals = variable('DMA DISTRIBUTED MULTIPOLES')
charges = np.array(dmavals)
print(charges)
np.save('SSI-041LEU-146PHE-1-dimer.npy', np.array(charges))