import numpy as np
set {scf_type pk
basis cc-pvdz
d_convergence 10
gdma_switch   0
gdma_limit    0
gdma_origin   [ 0.0,  0.0,  0.0 ]
}
molecule test {
    units Angstrom
    1 1
    --
    1 1
    C                0.866211747250625    -2.233476824974622    -0.173706966765333
    C                0.291211747250625    -0.020476824974622    -1.160706966765333
    N                1.169211747250624    -0.871476824974622    -0.645706966765333
    N               -0.956788252749375    -0.379476824974622    -1.386706966765333
    N                0.699211747250625     1.182523175025378    -1.508706966765333
    H                2.117211747250625    -0.548476824974622    -0.505706966765333
    H               -1.264788252749375    -1.322476824974622    -1.172706966765333
    H               -1.613788252749375     0.291523175025378    -1.769706966765333
    H                1.669211747250624     1.445523175025377    -1.392706966765333
    H                0.046211747250625     1.852523175025377    -1.901706966765333
    H               -0.185788252749375    -2.282476824974622     0.106293033234667
    H                1.478211747250625    -2.443476824974623     0.702293033234667
    H                1.051811747250625    -3.036296824974622    -0.902426966765333
    C               -0.744788252749375     0.417523175025378     2.532293033234667
    C               -1.247788252749375     1.849523175025378     2.292293033234667
    H               -0.056788252749375     0.405523175025378     3.376293033234667
    H               -1.589788252749375    -0.234476824974622     2.754293033234668
    H               -0.232788252749375     0.053523175025378     1.643293033234667
    H               -1.763788252749375     2.206523175025378     3.182293033234667
    H               -1.938788252749375     1.845523175025378     1.452293033234667
    H               -0.438908252749375     2.561923175025378     2.072603033234667

}
e, wfn = energy('scf', return_wfn=True)
gdma(wfn)
dmavals = variable('DMA DISTRIBUTED MULTIPOLES')
charges = np.array(dmavals)
print(charges)
np.save('SSI-150ARG-208ILE-1-dimer.npy', np.array(charges))