import numpy as np
set {scf_type pk
basis cc-pvdz
d_convergence 10
gdma_switch   0
gdma_limit    0
gdma_origin   [ 0.0,  0.0,  0.0 ]
}
molecule test {
    units Angstrom
    0 1
    --
    0 1
    C                1.578099071433246    -1.244085575601002    -1.712945012562642
    C               -0.580900928566754    -0.068085575601002    -1.259945012562642
    C                0.366099071433246    -1.022085575601002    -0.863945012562642
    C               -1.705900928566754     0.185914424398998    -0.493945012562642
    C               -1.933900928566754    -0.544085575601002     0.663054987437358
    C                0.137099071433246    -1.767085575601002     0.281054987437358
    C               -1.012900928566754    -1.536085575601002     1.056054987437358
    H               -0.419900928566754     0.497914424398998    -2.166945012562642
    H               -2.418900928566754     0.935914424398998    -0.803945012562642
    H                2.386099071433247    -1.611085575601002    -1.081945012562642
    H                1.893099071433246    -0.291085575601002    -2.138945012562642
    H               -2.815900928566753    -0.357085575601002     1.260054987437358
    H                0.847099071433246    -2.523085575601002     0.586054987437358
    H               -1.186900928566754    -2.112085575601002     1.955054987437358
    H                1.405669071433246    -1.959895575601002    -2.530185012562642
    C                1.358099071433246     1.890914424398998     1.183054987437358
    C                1.180099071433246     3.394914424398998     1.010054987437358
    H                0.572099071433246     1.480914424398998     1.814054987437358
    H                1.319099071433246     1.411914424398998     0.207054987437358
    H                2.330099071433247     1.680914424398998     1.631054987437358
    H                1.883099071433246     3.768914424398998     0.287054987437358
    H                1.356489071433246     3.917984424398998     1.961514987437358
    H                0.160835071433246     3.610964424398998     0.657314987437358

}
e, wfn = energy('scf', return_wfn=True)
gdma(wfn)
dmavals = variable('DMA DISTRIBUTED MULTIPOLES')
charges = np.array(dmavals)
print(charges)
np.save('SSI-022PHE-040ALA-1-dimer.npy', np.array(charges))