import numpy as np
set {scf_type pk
basis cc-pvdz
d_convergence 10
gdma_switch   0
gdma_limit    0
gdma_origin   [ 0.0,  0.0,  0.0 ]
}
molecule test {
    units Angstrom
    1 1
    --
    1 1
    C                1.212881321869630     0.772151545762435     2.159603966314638
    C                1.094881321869629    -0.492848454237565     0.077603966314638
    N                0.924881321869629    -0.426848454237565     1.393603966314638
    N                1.611881321869630     0.515151545762435    -0.596396033685362
    N                0.835881321869629    -1.612848454237565    -0.539396033685362
    H                0.535881321869629    -1.225848454237565     1.878603966314638
    H                1.815881321869630     1.394151545762435    -0.139396033685362
    H                1.781881321869630     0.435151545762435    -1.593396033685362
    H                0.433881321869629    -2.387848454237565    -0.024396033685362
    H                1.038881321869630    -1.727848454237565    -1.520396033685362
    H                0.558881321869629     0.766151545762435     3.033603966314638
    H                0.971881321869629     1.669151545762435     1.586603966314638
    H                2.259743321869629     0.782291545762435     2.497203966314638
    C               -2.507118678130371     0.669151545762435    -0.509396033685362
    C               -3.112118678130371     0.541151545762435    -1.908396033685362
    H               -1.695118678130370     1.397151545762435    -0.510396033685362
    H               -3.274118678130371     1.014151545762435     0.184603966314638
    H               -2.136118678130371    -0.298848454237565    -0.169396033685362
    H               -3.439118678130371     1.542151545762435    -2.179396033685362
    H               -2.290029678130371     0.202431545762435    -2.556036033685362
    H               -3.993942678130371    -0.116308454237565    -1.919756033685362

}
e, wfn = energy('scf', return_wfn=True)
gdma(wfn)
dmavals = variable('DMA DISTRIBUTED MULTIPOLES')
charges = np.array(dmavals)
print(charges)
np.save('SSI-190ARG-235LEU-1-dimer.npy', np.array(charges))