import numpy as np
set {scf_type pk
basis cc-pvdz
d_convergence 10
gdma_switch   0
gdma_limit    0
gdma_origin   [ 0.0,  0.0,  0.0 ]
}
molecule test {
    units Angstrom
    0 1
    --
    0 1
    C               -1.740487713501529     1.678034246812386     2.740020749080171
    C               -1.522487713501528     0.764034246812386     3.957020749080170
    H               -2.803487713501529     1.749034246812386     2.507020749080170
    H               -1.385487713501529     2.679034246812386     2.979020749080171
    H               -1.189487713501528     1.297034246812386     1.880020749080171
    H               -2.184487713501528     1.085034246812385     4.755020749080170
    H               -1.734937713501528    -0.285165753187614     3.703960749080171
    H               -0.488247713501529     0.826544246812386     4.326390749080171
    C                2.668512286498471    -1.576965753187614    -1.279979250919829
    C                0.070512286498472     1.156034246812386    -0.594979250919829
    C               -1.084487713501529     0.502034246812386    -0.989979250919829
    C                1.287512286498471     0.468034246812386    -0.700979250919829
    C                1.352512286498472    -0.858965753187614    -1.143979250919829
    C               -1.032487713501528    -0.825965753187614    -1.405979250919829
    C                0.194512286498471    -1.507965753187614    -1.514979250919829
    H                0.039512286498472     2.181034246812386    -0.253979250919829
    H               -2.026487713501528     1.024034246812386    -0.966979250919829
    H                2.200512286498471     0.976034246812386    -0.420979250919829
    H               -1.944487713501529    -1.340965753187614    -1.659979250919829
    H                2.535512286498471    -2.647965753187615    -1.117979250919829
    H                3.320512286498472    -1.207965753187614    -0.487979250919829
    H                0.218512286498472    -2.530965753187615    -1.864979250919830
    H                3.137262286498471    -1.403245753187614    -2.259825250919830

}
e, wfn = energy('scf', return_wfn=True)
gdma(wfn)
dmavals = variable('DMA DISTRIBUTED MULTIPOLES')
charges = np.array(dmavals)
print(charges)
np.save('SSI-195LEU-205PHE-1-dimer.npy', np.array(charges))