import numpy as np
set {scf_type pk
basis cc-pvdz
d_convergence 10
gdma_switch   0
gdma_limit    0
gdma_origin   [ 0.0,  0.0,  0.0 ]
}
molecule test {
    units Angstrom
    0 1
    --
    0 1
    C               -3.057986048133452     1.112115849360585     0.644945247493772
    C                0.708013951866547     0.276115849360585     0.561945247493772
    C               -0.488986048133453     0.976115849360585     0.376945247493772
    C                0.687013951866547    -0.988884150639415     1.159945247493772
    C               -1.714986048133453     0.423115849360585     0.814945247493772
    C               -0.515986048133453    -1.516884150639415     1.597945247493772
    C               -1.693986048133453    -0.813884150639415     1.442945247493772
    H                1.644013951866548     0.704115849360585     0.234945247493772
    H               -0.484986048133453     1.931115849360585    -0.122054752506228
    H                1.606013951866547    -1.543884150639415     1.291945247493772
    H               -0.531986048133453    -2.489884150639415     2.069945247493772
    H               -3.082986048133452     1.982115849360585     1.295945247493772
    H               -3.858986048133452     0.446115849360585     0.967945247493772
    H               -2.614986048133453    -1.255884150639415     1.797945247493772
    H               -3.263656048133452     1.441895849360585    -0.384104752506228
    C                2.370013951866548    -0.439884150639415    -2.688054752506228
    C                3.190013951866547     0.789115849360585    -3.065054752506227
    H                1.979013951866547    -0.929884150639415    -3.578054752506227
    H                3.010013951866548    -1.158884150639415    -2.178054752506227
    H                1.554013951866548    -0.168884150639415    -2.023054752506228
    H                3.903013951866547     0.487115849360585    -3.830054752506228
    H                2.525223951866547     1.589585849360585    -3.421854752506228
    H                3.770613951866547     1.143685849360585    -2.200654752506228

}
e, wfn = energy('scf', return_wfn=True)
gdma(wfn)
dmavals = variable('DMA DISTRIBUTED MULTIPOLES')
charges = np.array(dmavals)
print(charges)
np.save('SSI-121PHE-191LEU-1-dimer.npy', np.array(charges))