import numpy as np
set {scf_type pk
basis cc-pvdz
d_convergence 10
gdma_switch   0
gdma_limit    0
gdma_origin   [ 0.0,  0.0,  0.0 ]
}
molecule test {
    units Angstrom
    0 1
    --
    0 1
    C                2.220244594466420    -3.238571875484423     1.599953286524539
    C                0.058244594466420    -0.159571875484423     0.976953286524539
    C                0.817244594466420    -1.315571875484423     0.761953286524539
    C               -0.158755405533580     0.305428124515577     2.273953286524539
    C                1.365244594466421    -2.017571875484423     1.838953286524539
    C                0.381244594466421    -0.392571875484423     3.359953286524539
    C                1.141244594466420    -1.552571875484423     3.137953286524539
    H               -0.380755405533579     0.363428124515577     0.149953286524539
    H                0.984244594466420    -1.651571875484423    -0.252046713475461
    H               -0.736755405533579     1.204428124515577     2.438953286524538
    H                0.231244594466420    -0.007571875484423     4.354953286524538
    H                2.512244594466420    -3.666571875484423     2.557953286524539
    H                3.130244594466420    -2.917571875484423     1.090953286524539
    H                1.568244594466421    -2.077571875484423     3.979953286524538
    H                1.735554594466421    -4.020264875484424     0.996604286524539
    C                1.050244594466420     2.768428124515577    -1.911046713475461
    C               -2.308755405533579     0.068428124515577    -2.061046713475462
    C               -1.055755405533579    -0.342571875484423    -2.521046713475461
    C               -2.468755405533579     1.352428124515577    -1.541046713475461
    C                0.030244594466420     0.532428124515577    -2.458046713475461
    C               -1.376755405533580     2.225428124515577    -1.482046713475461
    C               -0.121755405533580     1.822428124515577    -1.943046713475461
    H               -3.152755405533580    -0.607571875484423    -2.107046713475461
    H               -0.922755405533579    -1.335571875484423    -2.921046713475461
    H               -3.437755405533579     1.660428124515577    -1.180046713475461
    H                0.993244594466421     0.197428124515577    -2.801046713475461
    H               -1.502755405533580     3.209428124515577    -1.058046713475461
    H                1.929244594466420     2.189428124515576    -1.631046713475461
    H                0.894244594466421     3.514428124515577    -1.136046713475461
    H                1.234184594466420     3.278563224515577    -2.868088713475461

}
e, wfn = energy('scf', return_wfn=True)
gdma(wfn)
dmavals = variable('DMA DISTRIBUTED MULTIPOLES')
charges = np.array(dmavals)
print(charges)
np.save('SSI-016PHE-176PHE-1-dimer.npy', np.array(charges))