import numpy as np
set {scf_type pk
basis cc-pvdz
d_convergence 10
gdma_switch   0
gdma_limit    0
gdma_origin   [ 0.0,  0.0,  0.0 ]
}
molecule test {
    units Angstrom
    -1 1
    --
    -1 1
    C               -1.714225314379316     1.356551650924006     1.609946720018981
    C               -0.588225314379315     0.677551650924006     0.833946720018981
    O               -0.789225314379315     0.408551650924006    -0.369053279981019
    O                0.487774685620684     0.405551650924006     1.412946720018982
    H               -2.549225314379315     0.659551650924006     1.702946720018982
    H               -2.068225314379315     2.223551650924005     1.048946720018981
    H               -1.408735314379316     1.687911650924006     2.613376720018981
    C                1.926774685620684    -1.280448349075994    -1.501053279981019
    O                0.526774685620685    -1.387448349075994    -1.742053279981018
    H                0.082774685620685    -0.708448349075994    -1.180053279981019
    H                2.133774685620685    -0.288448349075994    -1.096053279981019
    H                2.245424685620685    -2.047778349075994    -0.780163279981019
    H                2.461264685620685    -1.400578349075994    -2.454933279981019

}
e, wfn = energy('scf', return_wfn=True)
gdma(wfn)
dmavals = variable('DMA DISTRIBUTED MULTIPOLES')
charges = np.array(dmavals)
print(charges)
np.save('SSI-042ASP-045THR-1-dimer.npy', np.array(charges))