import numpy as np
set {scf_type pk
basis cc-pvdz
d_convergence 10
gdma_switch   0
gdma_limit    0
gdma_origin   [ 0.0,  0.0,  0.0 ]
}
molecule test {
    units Angstrom
    0 1
    --
    0 1
    C                3.447095935409330    -0.915883892432822     1.276892984254451
    C                4.420095935409329    -2.081883892432822     1.347892984254451
    H                2.441095935409329    -1.294883892432822     1.435892984254451
    H                3.676095935409329    -0.186883892432822     2.051892984254451
    H                3.509095935409329    -0.436883892432822     0.300892984254451
    H                4.282095935409330    -2.584883892432822     2.304892984254451
    H                4.206065935409329    -2.778933892432822     0.524302984254451
    H                5.442885935409330    -1.682003892432822     1.284682984254451
    C               -2.793904064590671     1.162116107567178    -2.218107015745549
    C               -0.126904064590671    -0.023883892432822     0.935892984254451
    C               -1.485904064590670    -0.204883892432822     1.086892984254451
    C                0.357095935409329     0.547116107567178    -0.236107015745549
    C               -2.351904064590671     0.184116107567178     0.040892984254451
    C               -0.506904064590671     0.908116107567178    -1.251107015745549
    C               -1.887904064590670     0.769116107567178    -1.131107015745549
    H                0.542095935409330    -0.300883892432822     1.735892984254451
    H               -1.882904064590671    -0.644883892432822     1.991892984254451
    H                1.420095935409329     0.698116107567178    -0.359107015745549
    H               -3.415904064590670     0.030116107567178     0.163892984254451
    H               -0.094904064590671     1.340116107567178    -2.153107015745549
    H               -3.504904064590671     0.356116107567178    -2.402107015745548
    H               -2.212904064590671     1.303116107567178    -3.129107015745549
    H               -3.344937064590670     2.086176107567178    -1.989037015745549

}
e, wfn = energy('scf', return_wfn=True)
gdma(wfn)
dmavals = variable('DMA DISTRIBUTED MULTIPOLES')
charges = np.array(dmavals)
print(charges)
np.save('SSI-017LEU-056PHE-1-dimer.npy', np.array(charges))