import numpy as np
set {scf_type pk
basis cc-pvdz
d_convergence 10
gdma_switch   0
gdma_limit    0
gdma_origin   [ 0.0,  0.0,  0.0 ]
}
molecule test {
    units Angstrom
    0 1
    --
    0 1
    C                1.947076178149939    -2.444141875446817    -1.203378443029854
    C               -0.665923821850061     0.245858124553183    -0.329378443029854
    C               -1.465923821850061    -0.399141875446817     0.605621556970146
    C                0.451076178149939    -0.407141875446817    -0.952378443029854
    C                0.755076178149939    -1.719141875446817    -0.610378443029854
    C               -1.168923821850061    -1.713141875446817     0.932621556970146
    C               -0.063923821850061    -2.357141875446817     0.322621556970146
    H               -0.927923821850061     1.244858124553183    -0.560378443029854
    H               -2.300923821850061     0.113858124553183     1.064621556970146
    H                1.063076178149939     0.104858124553183    -1.686378443029854
    H               -1.784923821850061    -2.227141875446817     1.655621556970146
    H                2.541076178149939    -2.819141875446817    -0.368378443029854
    H                2.534076178149939    -1.708141875446817    -1.753378443029854
    H                0.178076178149939    -3.379141875446817     0.572621556970146
    H                1.681436178149939    -3.265341875446817    -1.885328443029854
    C               -0.114923821850061     3.489858124553183     1.232621556970146
    C                0.081076178149939     4.334858124553184    -0.046378443029854
    H               -0.300923821850061     4.133858124553184     2.088621556970145
    H               -0.970923821850061     2.829858124553183     1.103621556970146
    H                0.776076178149939     2.891858124553183     1.421621556970146
    H               -0.819923821850061     4.912858124553184    -0.238378443029854
    H                0.940326178149939     5.011058124553183     0.073971556970146
    H                0.312316178149939     3.696858124553183    -0.912118443029854

}
e, wfn = energy('scf', return_wfn=True)
gdma(wfn)
dmavals = variable('DMA DISTRIBUTED MULTIPOLES')
charges = np.array(dmavals)
print(charges)
np.save('SSI-078PHE-218LEU-1-dimer.npy', np.array(charges))