import numpy as np
set {scf_type pk
basis cc-pvdz
d_convergence 10
gdma_switch   0
gdma_limit    0
gdma_origin   [ 0.0,  0.0,  0.0 ]
}
molecule test {
    units Angstrom
    0 1
    --
    0 1
    C               -2.739254705745747     0.947882734327543    -0.662176677008324
    C               -0.353254705745747    -1.446117265672457     1.063823322991676
    C                0.624745294254253    -0.579117265672457     1.532823322991676
    C               -1.437254705745747    -0.947117265672457     0.351823322991676
    C               -1.550254705745747     0.414882734327543     0.093823322991676
    C                0.514745294254253     0.783882734327543     1.283823322991676
    C               -0.572254705745747     1.278882734327543     0.573823322991676
    H               -0.271254705745747    -2.508117265672456     1.257823322991676
    H                1.472745294254253    -0.965117265672457     2.081823322991676
    H               -2.208254705745747    -1.607117265672457    -0.003176677008324
    H                1.287745294254254     1.458882734327543     1.613823322991676
    H               -3.144254705745746     1.790882734327543    -0.106176677008324
    H               -3.504254705745747     0.180882734327543    -0.692176677008324
    H               -0.652254705745747     2.340882734327543     0.387823322991676
    H               -2.510494705745747     1.321502734327543    -1.671176677008324
    C                2.412745294254253    -0.633117265672457    -1.143176677008324
    C                2.627745294254254     0.125882734327543    -2.439176677008324
    H                3.234745294254253    -1.313117265672457    -0.928176677008324
    H                2.397745294254253     0.095882734327543    -0.338176677008324
    H                1.467745294254253    -1.174117265672457    -1.177176677008324
    H                3.567745294254253     0.673882734327543    -2.356176677008324
    H                1.825745294254253     0.857882734327543    -2.536176677008324
    H                2.660055294254253    -0.509467265672457    -3.336556677008323

}
e, wfn = energy('scf', return_wfn=True)
gdma(wfn)
dmavals = variable('DMA DISTRIBUTED MULTIPOLES')
charges = np.array(dmavals)
print(charges)
np.save('SSI-094PHE-098ILE-1-dimer.npy', np.array(charges))