import numpy as np
set {scf_type pk
basis cc-pvdz
d_convergence 10
gdma_switch   0
gdma_limit    0
gdma_origin   [ 0.0,  0.0,  0.0 ]
}
molecule test {
    units Angstrom
    0 1
    --
    0 1
    C               -1.091179122679591     1.573627343173317    -0.316766869661652
    C               -2.035179122679590     2.726627343173317    -0.031766869661652
    C               -1.978179122679590     0.623627343173317    -1.093766869661652
    H               -0.786179122679590     1.090627343173317     0.609233130338348
    H               -0.225179122679590     1.891627343173317    -0.898766869661652
    H               -1.682179122679591     3.281627343173317     0.826233130338348
    H               -2.120179122679590     3.374627343173317    -0.904766869661652
    H               -1.571179122679590    -0.387372656826683    -1.112766869661652
    H               -2.114179122679591     0.995627343173317    -2.110766869661652
    H               -2.993009122679590     2.219231243173317     0.155602130338348
    H               -2.931599122679590     0.676794743173317    -0.547723869661652
    C                1.376820877320410    -1.198372656826683     0.309233130338348
    C                2.053820877320410    -1.276372656826683     1.664233130338348
    C                1.709820877320410    -2.417372656826684    -0.534766869661652
    H                0.299820877320410    -1.119372656826683     0.440233130338348
    H                1.721820877320410    -0.313372656826683    -0.224766869661652
    H                3.125820877320410    -1.439372656826683     1.542233130338348
    H                1.617820877320410    -2.122372656826683     2.179233130338349
    H                2.782820877320410    -2.444372656826683    -0.723766869661652
    H                1.415820877320410    -3.322372656826683     0.003233130338348
    H                1.869930877320410    -0.395864656826683     2.297393130338348
    H                1.162070877320410    -2.363898656826684    -1.487189869661652

}
e, wfn = energy('scf', return_wfn=True)
gdma(wfn)
dmavals = variable('DMA DISTRIBUTED MULTIPOLES')
charges = np.array(dmavals)
print(charges)
np.save('SSI-092PRO-133LYS-1-dimer.npy', np.array(charges))