import numpy as np
set {scf_type pk
basis cc-pvdz
d_convergence 10
gdma_switch   0
gdma_limit    0
gdma_origin   [ 0.0,  0.0,  0.0 ]
}
molecule test {
    units Angstrom
    0 1
    --
    0 1
    C               -5.146745353334775     0.893494619397250     1.218522634961280
    C               -1.520745353334775     0.216494619397250     0.335522634961280
    C               -0.912745353334775     0.285494619397250     1.581522634961280
    C               -2.890745353334775     0.412494619397250     0.221522634961280
    C               -3.664745353334775     0.671494619397250     1.348522634961280
    C               -1.679745353334775     0.546494619397250     2.711522634961280
    C               -3.049745353334774     0.742494619397250     2.593522634961280
    H               -0.927745353334775     0.017494619397250    -0.547477365038720
    H                0.155254646665225     0.141494619397250     1.670522634961280
    H               -3.353745353334775     0.358494619397250    -0.753477365038720
    H               -1.211745353334775     0.592494619397250     3.684522634961279
    H               -5.647745353334775     0.461494619397250     2.085522634961280
    H               -5.497745353334774     0.359494619397250     0.341522634961280
    H               -3.640745353334775     0.946494619397250     3.475522634961280
    H               -5.425305353334775     1.953904619397250     1.129492634961280
    C                2.890254646665225     0.229494619397250    -3.740477365038720
    C                1.624254646665225    -1.451505380602750    -0.580477365038720
    C                2.625254646665225    -1.129505380602750     0.326522634961280
    C                1.711254646665225    -1.012505380602750    -1.897477365038720
    C                2.796254646665226    -0.251505380602750    -2.317477365038720
    C                3.711254646665225    -0.368505380602750    -0.083477365038720
    C                3.795254646665225     0.069494619397250    -1.400477365038720
    H                0.773254646665225    -2.035505380602750    -0.258477365038720
    H                2.560254646665225    -1.470505380602750     1.351522634961280
    H                0.924254646665225    -1.266505380602750    -2.592477365038720
    H                4.494254646665225    -0.124505380602750     0.617522634961280
    H                3.143254646665225     1.290494619397250    -3.709477365038720
    H                1.920254646665225     0.140494619397250    -4.232477365038720
    H                4.641254646665225     0.667494619397250    -1.709477365038720
    H                3.656845646665225    -0.293535380602750    -4.331047365038721

}
e, wfn = energy('scf', return_wfn=True)
gdma(wfn)
dmavals = variable('DMA DISTRIBUTED MULTIPOLES')
charges = np.array(dmavals)
print(charges)
np.save('SSI-048PHE-058PHE-1-dimer.npy', np.array(charges))