import numpy as np
set {scf_type pk
basis cc-pvdz
d_convergence 10
gdma_switch   0
gdma_limit    0
gdma_origin   [ 0.0,  0.0,  0.0 ]
}
molecule test {
    units Angstrom
    0 1
    --
    0 1
    C               -2.436591204960183    -0.707521672962348     1.612323843695060
    C               -3.697591204960182    -1.288521672962348     2.249323843695061
    H               -2.473591204960182    -0.789521672962348     0.525323843695061
    H               -2.340591204960182     0.347478327037652     1.879323843695060
    H               -1.556591204960182    -1.237521672962348     1.980323843695060
    H               -3.645591204960183    -1.124521672962348     3.327323843695061
    H               -3.767641204960182    -2.367141672962348     2.045203843695060
    H               -4.592511204960182    -0.765701672962348     1.880833843695061
    C               -1.348591204960182     1.541478327037652    -2.020676156304940
    C                0.276408795039818     1.466478327037652    -0.086676156304939
    C               -0.221591204960182     0.887478327037652    -1.256676156304940
    C                1.326408795039818     0.867478327037652     0.616323843695061
    C                1.887408795039818    -0.321521672962348     0.145323843695061
    C                0.346408795039818    -0.304521672962348    -1.713676156304939
    C                1.397408795039818    -0.908521672962348    -1.020676156304939
    O                2.916408795039818    -0.911521672962348     0.821323843695061
    H               -0.156591204960182     2.387478327037652     0.281323843695061
    H                1.699408795039818     1.321478327037652     1.523323843695060
    H               -2.042591204960182     1.981478327037652    -1.304676156304939
    H               -1.892591204960182     0.755478327037652    -2.521676156304939
    H               -0.036591204960182    -0.773521672962348    -2.610676156304939
    H                3.125408795039818    -0.432521672962348     1.630323843695061
    H                1.833408795039818    -1.829521672962348    -1.380676156304940
    H               -1.025181204960182     2.320248327037652    -2.727016156304940

}
e, wfn = energy('scf', return_wfn=True)
gdma(wfn)
dmavals = variable('DMA DISTRIBUTED MULTIPOLES')
charges = np.array(dmavals)
print(charges)
np.save('SSI-019ALA-058TYR-1-dimer.npy', np.array(charges))