import numpy as np
set {scf_type pk
basis cc-pvdz
d_convergence 10
gdma_switch   0
gdma_limit    0
gdma_origin   [ 0.0,  0.0,  0.0 ]
}
molecule test {
    units Angstrom
    -1 1
    --
    -1 1
    C               -1.878006230835706    -0.508655151679935     1.922047132823884
    C               -1.471006230835706    -1.449655151679935     3.053047132823884
    H               -1.422006230835706    -0.836655151679935     0.988047132823884
    H               -2.960006230835706    -0.495655151679935     1.804047132823884
    H               -1.586006230835706     0.512344848320065     2.138047132823884
    H               -1.991006230835706    -1.142655151679935     3.962047132823884
    H               -0.386906230835706    -1.393950151679935     3.230874132823884
    H               -1.770396230835706    -2.479934151679935     2.810375132823884
    C               -0.272006230835706     0.876344848320065    -1.181952867176116
    C                0.259993769164294     2.265344848320065    -1.526952867176116
    C                0.847993769164294    -0.115655151679935    -0.886952867176116
    O                1.635993769164294     0.138344848320065     0.050047132823884
    O                0.923993769164294    -1.155655151679935    -1.579952867176116
    H               -0.904006230835706     0.963344848320065    -0.299952867176116
    H               -0.892006230835706     0.515344848320065    -2.005952867176116
    H                0.966993769164294     2.559344848320065    -0.753952867176116
    H               -0.570246230835706     2.986896848320065    -1.535254867176116
    H                0.808963769164294     2.243816648320065    -2.479932867176116

}
e, wfn = energy('scf', return_wfn=True)
gdma(wfn)
dmavals = variable('DMA DISTRIBUTED MULTIPOLES')
charges = np.array(dmavals)
print(charges)
np.save('SSI-025ILE-059ASP-1-dimer.npy', np.array(charges))