import numpy as np
set {scf_type pk
basis cc-pvdz
d_convergence 10
gdma_switch   0
gdma_limit    0
gdma_origin   [ 0.0,  0.0,  0.0 ]
}
molecule test {
    units Angstrom
    0 1
    --
    0 1
    C                1.982752379734018    -0.016322543079986     1.638921061505639
    C                3.135752379734018    -0.208322543079986     2.612921061505639
    O                2.064752379734017     1.295677456920014     1.084921061505639
    H                2.027752379734018    -0.764322543079986     0.845921061505639
    H                1.039752379734018    -0.128322543079986     2.175921061505639
    H                3.034752379734018    -1.168322543079986     3.117921061505639
    H                1.203752379734017     1.503677456920014     0.701921061505639
    H                3.082276379734017     0.625447456920014     3.328441061505639
    H                4.050226379734018    -0.205432543079986     2.001587061505639
    C                0.782752379734017     1.419677456920014    -1.723078938494361
    C                0.127752379734017     2.301677456920014    -2.778078938494361
    C               -0.145247620265983     0.445677456920014    -1.042078938494361
    C               -0.212247620265983    -0.890322543079986    -1.442078938494361
    C               -0.948247620265983     0.868677456920014     0.014921061505639
    C               -1.073247620265982    -1.790322543079986    -0.789078938494361
    C               -1.809247620265982    -0.024322543079986     0.665921061505639
    C               -1.861247620265982    -1.350322543079986     0.267921061505639
    O               -2.708247620265982    -2.205322543079986     0.912921061505639
    H                1.596752379734018     0.859677456920014    -2.169078938494361
    H                1.209752379734018     2.096677456920014    -0.990078938494361
    H               -0.636247620265982     2.917677456920014    -2.299078938494361
    H                0.402752379734018    -1.237322543079986    -2.263078938494361
    H               -0.939247620265982     1.907677456920014     0.323921061505639
    H               -1.118247620265983    -2.821322543079986    -1.109078938494361
    H               -2.437247620265982     0.313677456920014     1.477921061505639
    H               -2.637247620265982    -3.102322543079986     0.571921061505639
    H               -0.318077620265983     1.679027456920014    -3.567725938494361
    H                0.895089379734017     2.961677456920013    -3.208889938494361

}
e, wfn = energy('scf', return_wfn=True)
gdma(wfn)
dmavals = variable('DMA DISTRIBUTED MULTIPOLES')
charges = np.array(dmavals)
print(charges)
np.save('SSI-008SER-093TYR-1-dimer.npy', np.array(charges))