import numpy as np
set {scf_type pk
basis cc-pvdz
d_convergence 10
gdma_switch   0
gdma_limit    0
gdma_origin   [ 0.0,  0.0,  0.0 ]
}
molecule test {
    units Angstrom
    0 1
    --
    0 1
    C               -3.867255611266026    -1.591821765758224    -0.051416565647613
    C               -0.326255611266026    -0.354821765758224     0.496583434352387
    C                0.355744388733974    -0.996821765758224    -0.532416565647613
    C               -1.697255611266026    -0.545821765758224     0.658583434352387
    C               -2.390255611266026    -1.398821765758224    -0.194416565647613
    C               -0.334255611266026    -1.840821765758224    -1.387416565647613
    C               -1.703255611266026    -2.041821765758224    -1.218416565647613
    H                0.206744388733974     0.289178234241776     1.180583434352387
    H                1.415744388733974    -0.850821765758224    -0.650416565647613
    H               -2.214255611266026    -0.041821765758224     1.458583434352387
    H                0.189744388733974    -2.345821765758224    -2.187416565647613
    H               -4.214255611266027    -1.118821765758224     0.866583434352387
    H               -4.062255611266026    -2.656821765758223     0.037583434352387
    H               -2.227255611266026    -2.707821765758224    -1.888416565647613
    H               -4.432452211266027    -1.181030765758224    -0.901006565647613
    C                2.616744388733974     2.070178234241776     0.582583434352387
    C                2.066744388733974     3.485178234241776     0.349583434352387
    O                4.007744388733974     2.085178234241776     0.898583434352387
    H                2.087744388733974     1.612178234241776     1.418583434352387
    H                2.446744388733973     1.460178234241776    -0.307416565647613
    H                2.365744388733974     4.114178234241776     1.189583434352387
    H                4.251744388733974     1.220178234241776     1.261583434352387
    H                0.969626388733974     3.467838234241776     0.271913434352387
    H                2.470552388733974     3.931108234241776    -0.571326565647613

}
e, wfn = energy('scf', return_wfn=True)
gdma(wfn)
dmavals = variable('DMA DISTRIBUTED MULTIPOLES')
charges = np.array(dmavals)
print(charges)
np.save('SSI-127PHE-133SER-1-dimer.npy', np.array(charges))