import numpy as np
set {scf_type pk
basis cc-pvdz
d_convergence 10
gdma_switch   0
gdma_limit    0
gdma_origin   [ 0.0,  0.0,  0.0 ]
}
molecule test {
    units Angstrom
    -1 1
    --
    -1 1
    C                3.102299682648603     0.454466781273306     0.151090757686081
    C                2.486299682648603     1.681466781273306    -0.515909242313919
    O                1.240299682648603     1.736466781273306    -0.598909242313919
    O                3.233299682648603     2.578466781273306    -0.967909242313919
    H                2.940299682648603    -0.405533218726694    -0.501909242313919
    H                2.586299682648603     0.251466781273306     1.090090757686081
    H                4.184209682648603     0.536096781273306     0.332240757686081
    C               -2.629700317351397    -2.784533218726694     1.606090757686081
    C               -1.900700317351397    -0.197533218726694    -0.842909242313919
    C               -0.860700317351397    -1.013533218726694     0.917090757686081
    C               -2.031700317351397    -1.688533218726694     0.770090757686081
    N               -0.804700317351397    -0.086533218726694    -0.100909242313919
    N               -2.664700317351397    -1.162533218726694    -0.338909242313919
    H               -0.061700317351397     0.603466781273306    -0.257909242313919
    H               -2.134700317351397     0.409466781273306    -1.710909242313919
    H               -0.118700317351397    -1.172533218726694     1.689090757686081
    H               -3.624700317351397    -2.471533218726694     1.927090757686081
    H               -2.015700317351397    -2.878533218726695     2.491090757686081
    H               -2.709980317351397    -3.750723218726694     1.086440757686081

}
e, wfn = energy('scf', return_wfn=True)
gdma(wfn)
dmavals = variable('DMA DISTRIBUTED MULTIPOLES')
charges = np.array(dmavals)
print(charges)
np.save('SSI-024GLU-040HIE-1-dimer.npy', np.array(charges))