import numpy as np
set {scf_type pk
basis cc-pvdz
d_convergence 10
gdma_switch   0
gdma_limit    0
gdma_origin   [ 0.0,  0.0,  0.0 ]
}
molecule test {
    units Angstrom
    0 1
    --
    0 1
    C                0.981307989044411    -1.606189132828540    -2.851922538846274
    C                0.214307989044411    -1.649189132828540    -4.172922538846274
    C                2.328307989044411    -2.338189132828540    -2.852922538846274
    H                1.159307989044411    -0.560189132828540    -2.611922538846274
    H                0.349307989044411    -2.029189132828539    -2.070922538846274
    H                0.006307989044411    -2.696189132828540    -4.389922538846274
    H                2.911307989044411    -2.074189132828540    -3.733922538846274
    H                0.855337989044411    -1.230869132828540    -4.962922538846274
    H               -0.775712010955589    -1.195369132828540    -4.018272538846274
    H                2.918717989044411    -2.032129132828540    -1.976712538846274
    H                2.161637989044411    -3.425489132828540    -2.852202538846274
    C               -1.210692010955589     2.890810867171461     2.835077461153726
    C               -0.092692010955589    -0.624189132828540     0.619077461153726
    C                0.052307989044411     0.639810867171460     0.042077461153726
    C               -0.588692010955589    -0.740189132828540     1.919077461153726
    C               -0.298692010955589     1.780810867171460     0.768077461153726
    C               -0.933692010955589     0.403810867171460     2.639077461153726
    C               -0.795692010955589     1.667810867171460     2.069077461153726
    H                0.176307989044411    -1.513189132828540     0.070077461153726
    H                0.429307989044411     0.745810867171460    -0.963922538846274
    H               -0.725692010955589    -1.716189132828540     2.362077461153726
    H               -0.186692010955589     2.753810867171461     0.312077461153726
    H               -1.306692010955589     0.299810867171460     3.646077461153726
    H               -0.480692010955589     3.679810867171461     2.642077461153726
    H               -1.183692010955589     2.670810867171460     3.902077461153726
    H               -2.213372010955589     3.261240867171460     2.575417461153726

}
e, wfn = energy('scf', return_wfn=True)
gdma(wfn)
dmavals = variable('DMA DISTRIBUTED MULTIPOLES')
charges = np.array(dmavals)
print(charges)
np.save('SSI-150LEU-153PHE-1-dimer.npy', np.array(charges))