import numpy as np
set {scf_type pk
basis cc-pvdz
d_convergence 10
gdma_switch   0
gdma_limit    0
gdma_origin   [ 0.0,  0.0,  0.0 ]
}
molecule test {
    units Angstrom
    0 1
    --
    0 1
    C                0.396724565862397    -3.575791949609013     1.061025371891066
    C                1.873724565862397    -3.599791949609013     1.421025371891067
    H               -0.145275434137603    -2.940791949609013     1.762025371891066
    H                0.270724565862397    -3.183791949609013     0.050025371891066
    H               -0.030275434137603    -4.578791949609013     1.081025371891066
    H                2.344724565862397    -4.328791949609013     0.761025371891066
    H                2.039824565862397    -3.929103949609013     2.457345371891066
    H                2.349574565862397    -2.632979949609013     1.200015371891066
    C                1.215724565862397     1.330208050390987    -2.262974628108934
    C               -0.958275434137603    -0.085791949609013     0.529025371891066
    C               -1.600275434137603     1.051208050390987     0.989025371891066
    C               -0.018275434137603     0.021208050390987    -0.497974628108934
    C                0.278724565862397     1.242208050390987    -1.084974628108933
    C               -1.313275434137603     2.269208050390987     0.389025371891066
    C               -0.379275434137603     2.357208050390987    -0.629974628108934
    H               -1.197275434137603    -1.048791949609013     0.954025371891066
    H               -2.339275434137603     0.982208050390987     1.773025371891066
    H                0.459724565862397    -0.874791949609013    -0.865974628108934
    H               -1.822275434137603     3.164208050390987     0.716025371891067
    H                0.684724565862397     1.849208050390987    -3.062974628108933
    H                1.442724565862397     0.327208050390987    -2.626974628108933
    H               -0.206275434137603     3.305208050390987    -1.103974628108934
    H                2.155374565862397     1.865417050390987    -2.061464628108934

}
e, wfn = energy('scf', return_wfn=True)
gdma(wfn)
dmavals = variable('DMA DISTRIBUTED MULTIPOLES')
charges = np.array(dmavals)
print(charges)
np.save('SSI-107VAL-147PHE-1-dimer.npy', np.array(charges))