import numpy as np
set {scf_type pk
basis cc-pvdz
d_convergence 10
gdma_switch   0
gdma_limit    0
gdma_origin   [ 0.0,  0.0,  0.0 ]
}
molecule test {
    units Angstrom
    0 1
    --
    0 1
    C               -0.813411253791464     2.138400011778257     1.574695395286613
    C                0.335588746208536     0.079400011778257    -1.401304604713387
    C               -0.482411253791464     0.787400011778257    -0.504304604713387
    C                1.724588746208536     0.026400011778257    -1.163304604713387
    C                0.074588746208536     1.450400011778257     0.595695395286613
    C                2.269588746208536     0.681400011778257    -0.056304604713387
    C                1.448588746208536     1.369400011778257     0.831695395286613
    H               -0.094411253791464    -0.427599988221743    -2.255304604713388
    H               -1.547411253791464     0.812400011778257    -0.675304604713387
    H                2.368588746208536    -0.517599988221743    -1.841304604713387
    H                3.336588746208536     0.636400011778257     0.121695395286613
    H               -1.463411253791464     2.806400011778257     1.007695395286613
    H               -0.228411253791464     2.746400011778257     2.267695395286613
    H                1.881588746208536     1.850400011778257     1.697695395286613
    H               -1.432011253791464     1.423750011778257     2.137385395286612
    C               -1.554411253791464    -3.142599988221743    -0.670304604713387
    C               -2.277411253791464    -2.703599988221743     0.607695395286613
    H               -1.777411253791464    -4.187599988221743    -0.895304604713387
    H               -1.858411253791464    -2.528599988221743    -1.516304604713387
    H               -0.477411253791464    -3.013599988221743    -0.567304604713387
    H               -1.939411253791464    -1.699599988221743     0.863695395286613
    H               -2.042981253791464    -3.377059988221743     1.445255395286613
    H               -3.361491253791464    -2.699319988221743     0.421301395286613

}
e, wfn = energy('scf', return_wfn=True)
gdma(wfn)
dmavals = variable('DMA DISTRIBUTED MULTIPOLES')
charges = np.array(dmavals)
print(charges)
np.save('SSI-027PHE-030ILE-1-dimer.npy', np.array(charges))