import numpy as np
set {scf_type pk
basis cc-pvdz
d_convergence 10
gdma_switch   0
gdma_limit    0
gdma_origin   [ 0.0,  0.0,  0.0 ]
}
molecule test {
    units Angstrom
    0 1
    --
    0 1
    C                2.201210358670089    -0.906721621579848     1.730399573687156
    C                1.988210358670089    -1.111721621579847     3.232399573687156
    C                3.185210358670089     0.224278378420152     1.410399573687156
    H                2.564210358670089    -1.835721621579847     1.290399573687156
    H                1.245210358670089    -0.670721621579848     1.263399573687156
    H                1.876210358670089    -0.147721621579848     3.727399573687156
    H                4.116210358670090     0.101278378420152     1.959399573687156
    H                2.835910358670089    -1.643751621579847     3.688849573687156
    H                1.034639358670089    -1.634361621579848     3.398369573687156
    H                3.391000358670090     0.251338378420152     0.330159573687156
    H                2.718830358670089     1.186928378420152     1.666909573687156
    C               -1.072789641329911     3.021278378420152    -1.856600426312844
    C               -0.999789641329911    -1.056721621579848    -0.415600426312844
    C                0.019210358670089    -0.629721621579848    -1.268600426312844
    C               -1.971789641329911    -0.180721621579848     0.022399573687156
    C               -0.027789641329911     0.694278378420152    -1.761600426312844
    C               -2.028789641329911     1.129278378420152    -0.463600426312844
    C               -1.060789641329911     1.578278378420153    -1.382600426312844
    O               -0.958789641329911    -2.312721621579847     0.080399573687156
    H                0.816210358670089    -1.295721621579847    -1.568600426312844
    H               -0.220789641329911    -2.819721621579847    -0.273600426312844
    H               -2.600789641329910    -0.598721621579847     0.767399573687156
    H                0.753210358670089     1.040278378420152    -2.420600426312844
    H               -2.841789641329910     1.778278378420152    -0.184600426312844
    H               -2.051789641329911     3.468278378420152    -1.678600426312844
    H               -0.888789641329911     3.032278378420152    -2.929600426312844
    H               -0.294624641329911     3.608268378420152    -1.346790426312844

}
e, wfn = energy('scf', return_wfn=True)
gdma(wfn)
dmavals = variable('DMA DISTRIBUTED MULTIPOLES')
charges = np.array(dmavals)
print(charges)
np.save('SSI-129LEU-277TYR-1-dimer.npy', np.array(charges))