import numpy as np
set {scf_type pk
basis cc-pvdz
d_convergence 10
gdma_switch   0
gdma_limit    0
gdma_origin   [ 0.0,  0.0,  0.0 ]
}
molecule test {
    units Angstrom
    1 1
    --
    1 1
    C               -1.889154173801503    -1.763839457152799    -0.580363876135264
    C               -2.584154173801503    -1.314839457152799    -1.864363876135264
    H               -2.063154173801503    -2.824839457152799    -0.398363876135264
    H               -0.815154173801503    -1.604839457152798    -0.676363876135264
    H               -2.253154173801503    -1.182839457152799     0.269636123864736
    H               -2.271154173801503    -0.295839457152799    -2.093363876135264
    H               -3.676944173801503    -1.321929457152799    -1.738844876135264
    H               -2.278504173801503    -1.970129457152799    -2.693320876135264
    C               -0.457154173801503     1.909160542847201     1.133636123864736
    C                1.239845826198497     0.311160542847201     0.328636123864736
    N                0.341845826198497     1.254160542847201     0.091636123864736
    N                1.461845826198497    -0.092839457152799     1.563636123864736
    N                1.911845826198497    -0.229839457152799    -0.665363876135264
    H                0.182845826198497     1.516160542847201    -0.875363876135264
    H                1.000845826198497     0.378160542847201     2.323636123864736
    H                2.071845826198497    -0.879839457152798     1.732636123864735
    H                1.815845826198497     0.130160542847201    -1.604363876135264
    H                2.581845826198497    -0.964839457152798    -0.497363876135264
    H                0.197845826198497     2.505160542847201     1.744636123864735
    H               -0.993154173801503     1.168160542847201     1.732636123864735
    H               -1.181294173801503     2.625280542847201     0.717964123864736

}
e, wfn = energy('scf', return_wfn=True)
gdma(wfn)
dmavals = variable('DMA DISTRIBUTED MULTIPOLES')
charges = np.array(dmavals)
print(charges)
np.save('SSI-080THR-090ARG-1-dimer.npy', np.array(charges))