import numpy as np
set {scf_type pk
basis cc-pvdz
d_convergence 10
gdma_switch   0
gdma_limit    0
gdma_origin   [ 0.0,  0.0,  0.0 ]
}
molecule test {
    units Angstrom
    0 1
    --
    0 1
    C               -0.007640434400785    -0.119026527433825    -0.899642603355818
    C               -0.380640434400785    -0.401026527433825    -2.350642603355817
    C                1.079359565599215    -0.998026527433825    -0.343642603355818
    C                2.416359565599215    -1.038026527433825    -0.603642603355817
    C                1.973359565599215    -2.573026527433825     0.913357396644182
    N                0.833359565599215    -1.955026527433825     0.620357396644183
    N                2.955359565599215    -2.019026527433825     0.211357396644182
    H                0.315359565599215     0.910973472566175    -0.806642603355818
    H               -0.898640434400785    -0.247026527433825    -0.281642603355818
    H               -0.694640434400785    -1.443026527433825    -2.443642603355817
    H                2.950359565599215    -0.396026527433825    -1.290642603355818
    H                2.094359565599215    -3.360026527433825     1.649357396644182
    H                3.933359565599215    -2.272026527433824     0.282357396644182
    H                0.500289565599215    -0.195446527433825    -2.976505603355817
    H               -1.212020434400785     0.263203472566175    -2.629215603355817
    C               -2.573640434400785     2.273973472566175     0.658357396644182
    C               -2.585640434400785     2.700973472566175     2.135357396644182
    C               -3.070640434400785     3.431973472566175    -0.325642603355818
    H               -1.568640434400785     1.967973472566175     0.372357396644182
    H               -3.236640434400785     1.421973472566175     0.514357396644182
    H               -3.463640434400785     3.321973472566175     2.317357396644183
    H               -2.411640434400785     4.297973472566175    -0.262642603355818
    H               -3.060640434400785     3.066973472566175    -1.348642603355818
    H               -4.086640434400786     3.728973472566175    -0.070642603355818
    H               -2.623780434400785     1.826012472566175     2.800927396644183
    H               -1.682520434400785     3.296376472566175     2.335017396644183

}
e, wfn = energy('scf', return_wfn=True)
gdma(wfn)
dmavals = variable('DMA DISTRIBUTED MULTIPOLES')
charges = np.array(dmavals)
print(charges)
np.save('SSI-069HIE-075ILE-1-dimer.npy', np.array(charges))