import numpy as np
set {scf_type pk
basis cc-pvdz
d_convergence 10
gdma_switch   0
gdma_limit    0
gdma_origin   [ 0.0,  0.0,  0.0 ]
}
molecule test {
    units Angstrom
    0 1
    --
    0 1
    C                1.422814434887255    -2.504035584643634    -0.979713841658180
    C                1.925814434887255    -2.772035584643633     0.443286158341820
    H                0.409814434887255    -2.099035584643633    -0.944713841658180
    H                2.068814434887255    -1.766035584643634    -1.454713841658180
    H                1.430814434887255    -3.412035584643634    -1.578713841658180
    H                1.923814434887255    -1.825035584643634     0.983286158341820
    H                1.233394434887255    -3.453757584643634     0.958856158341820
    H                2.954094434887256    -3.162172584643634     0.463896158341820
    C               -2.018185565112744     0.520964415356366     2.016286158341820
    C                0.570814434887255     1.092964415356366    -1.374713841658180
    C               -0.803185565112745     1.098964415356366    -1.543713841658180
    C                1.104814434887255     0.913964415356366    -0.112713841658180
    C               -1.638185565112745     0.936964415356366    -0.440713841658180
    C                0.257814434887255     0.746964415356366     0.985286158341820
    C               -1.112185565112745     0.755964415356366     0.836286158341820
    H                1.223814434887255     1.211964415356366    -2.226713841658181
    H               -1.228185565112745     1.225964415356366    -2.529713841658180
    H                2.175814434887255     0.888964415356366     0.022286158341820
    H               -2.704185565112744     0.938964415356366    -0.593713841658180
    H                0.688814434887255     0.587964415356366     1.963286158341820
    H               -2.851185565112745     1.220964415356366     1.965286158341820
    H               -1.473185565112745     0.736964415356366     2.934286158341819
    H               -2.403395565112745    -0.508166584643634     2.066316158341820

}
e, wfn = energy('scf', return_wfn=True)
gdma(wfn)
dmavals = variable('DMA DISTRIBUTED MULTIPOLES')
charges = np.array(dmavals)
print(charges)
np.save('SSI-129VAL-184PHE-1-dimer.npy', np.array(charges))