import numpy as np
set {scf_type pk
basis cc-pvdz
d_convergence 10
gdma_switch   0
gdma_limit    0
gdma_origin   [ 0.0,  0.0,  0.0 ]
}
molecule test {
    units Angstrom
    0 1
    --
    0 1
    C               -0.563215333732411    -1.138995127090834     2.651214417273492
    C                0.598784666267589     0.104004872909167     0.813214417273492
    C               -0.559215333732411    -0.116995127090833     1.557214417273492
    C                0.627784666267589     1.087004872909167    -0.169785582726508
    C               -0.505215333732411     1.850004872909167    -0.414785582726508
    C               -1.693215333732411     0.655004872909167     1.309214417273492
    C               -1.665215333732411     1.641004872909167     0.319214417273492
    H                1.484784666267589    -0.482995127090833     1.005214417273492
    H                1.531784666267589     1.258004872909166    -0.736785582726508
    H                0.059784666267589    -1.977995127090833     2.340214417273492
    H               -1.577215333732411    -1.517995127090833     2.778214417273492
    H               -0.488215333732411     2.605004872909167    -1.186785582726508
    H               -2.593215333732410     0.500004872909167     1.887214417273492
    H               -2.545215333732411     2.241004872909167     0.126214417273492
    H               -0.187078333732411    -0.750635127090833     3.609174417273492
    C                1.303784666267589    -1.409995127090834    -2.137785582726508
    C                1.991784666267589    -1.973995127090833    -3.364785582726508
    H                0.742784666267589    -0.516995127090833    -2.398785582726508
    H                0.603784666267589    -2.143995127090833    -1.738785582726508
    H                2.047784666267589    -1.166995127090833    -1.379785582726508
    H                1.229784666267589    -2.220995127090833    -4.099785582726508
    H                2.675921666267589    -1.232545127090834    -3.803205582726508
    H                2.538555666267590    -2.892455127090833    -3.105035582726508

}
e, wfn = energy('scf', return_wfn=True)
gdma(wfn)
dmavals = variable('DMA DISTRIBUTED MULTIPOLES')
charges = np.array(dmavals)
print(charges)
np.save('SSI-007PHE-024VAL-1-dimer.npy', np.array(charges))