import numpy as np
set {scf_type pk
basis cc-pvdz
d_convergence 10
gdma_switch   0
gdma_limit    0
gdma_origin   [ 0.0,  0.0,  0.0 ]
}
molecule test {
    units Angstrom
    0 1
    --
    0 1
    C                0.334105297925565    -1.533788033376434     0.565794342688113
    C                0.287105297925565    -1.584788033376434     2.092794342688113
    C                1.705105297925565    -0.997788033376435     0.134794342688113
    C                0.071105297925565    -2.920788033376434    -0.022205657311887
    H               -0.443894702074435    -0.880788033376435     0.200794342688113
    H                0.774105297925565    -0.685788033376435     2.473794342688113
    H                0.903105297925565    -2.424788033376435     2.418794342688114
    H                2.497105297925565    -1.630788033376434     0.535794342688113
    H                1.759105297925565    -0.990788033376435    -0.954205657311887
    H                1.840105297925565     0.021211966623565     0.502794342688113
    H               -0.903894702074435    -3.284788033376434     0.299794342688113
    H                0.082105297925565    -2.862788033376435    -1.110205657311887
    H                0.844105297925565    -3.617788033376435     0.302794342688113
    H               -0.686594702074435    -1.654544033376434     2.599784342688113
    C               -0.484894702074435     1.888211966623565    -0.759205657311887
    C               -0.739894702074435     3.109211966623566     0.118794342688113
    C               -1.161894702074435     1.966211966623565    -2.114205657311887
    H                0.587105297925565     1.725211966623566    -0.881205657311887
    H               -0.920894702074435     1.042211966623565    -0.244205657311887
    H               -1.818894702074435     3.172211966623566     0.285794342688113
    H               -2.238894702074435     2.045211966623566    -1.983205657311887
    H               -0.816894702074435     2.851211966623566    -2.648205657311887
    H               -0.379314702074435     4.022283766623565    -0.377475657311887
    H               -0.284564702074435     2.944828966623565     1.106544342688113
    H               -0.920844702074435     1.083808966623565    -2.725155657311887

}
e, wfn = energy('scf', return_wfn=True)
gdma(wfn)
dmavals = variable('DMA DISTRIBUTED MULTIPOLES')
charges = np.array(dmavals)
print(charges)
np.save('SSI-095LEU-133LYS-1-dimer.npy', np.array(charges))