import numpy as np
set {scf_type pk
basis cc-pvdz
d_convergence 10
gdma_switch   0
gdma_limit    0
gdma_origin   [ 0.0,  0.0,  0.0 ]
}
molecule test {
    units Angstrom
    -1 1
    --
    -1 1
    C                1.147091658416751    -1.767553621141671     2.162528576144481
    C                1.840091658416751    -2.554553621141671     3.269528576144481
    H                1.833091658416752    -1.604553621141671     1.329528576144481
    H                0.276091658416751    -2.318553621141671     1.804528576144481
    H                0.815091658416751    -0.802553621141671     2.548528576144481
    H                1.122091658416752    -2.725553621141671     4.074528576144480
    H                2.700771658416752    -1.990584621141671     3.658342576144481
    H                2.186191658416751    -3.525644621141670     2.885860576144481
    C               -0.433908341583249     0.323446378858329    -0.221471423855519
    C               -1.533908341583248     0.952446378858329     0.642528576144481
    C               -0.377908341583249     0.900446378858329    -1.626471423855519
    O               -1.443908341583249     1.221446378858329    -2.191471423855520
    O                0.739091658416752     1.016446378858329    -2.172471423855519
    H                0.525091658416751     0.486446378858329     0.273528576144481
    H               -0.601908341583249    -0.752553621141671    -0.281471423855519
    H               -1.377908341583248     0.568446378858329     1.650528576144481
    H               -2.525408341583249     0.655222378858329     0.270248276144481
    H               -1.404978341583249     2.042193378858329     0.718875676144481

}
e, wfn = energy('scf', return_wfn=True)
gdma(wfn)
dmavals = variable('DMA DISTRIBUTED MULTIPOLES')
charges = np.array(dmavals)
print(charges)
np.save('SSI-044ALA-052ASP-1-dimer.npy', np.array(charges))