import numpy as np
set {scf_type pk
basis cc-pvdz
d_convergence 10
gdma_switch   0
gdma_limit    0
gdma_origin   [ 0.0,  0.0,  0.0 ]
}
molecule test {
    units Angstrom
    -1 1
    --
    -1 1
    C                0.146438204738098    -0.713950359199188    -1.914701978529257
    C               -0.578561795261902    -1.006950359199188    -0.608701978529257
    O               -1.748561795261902    -0.649950359199188    -0.411701978529257
    O                0.133438204738098    -1.608950359199188     0.226298021470743
    H                0.745438204738098    -1.594950359199188    -2.149701978529257
    H                0.829438204738098     0.123049640800812    -1.768701978529257
    H               -0.502441795261902    -0.525680359199188    -2.782751978529257
    C                0.754438204738098     1.399049640800812     1.790298021470743
    C                1.237438204738098     2.519049640800812     0.873298021470743
    H               -0.246561795261902     1.600049640800812     2.171298021470743
    H                0.745438204738098     0.475049640800812     1.231298021470743
    H                1.445438204738098     1.275049640800812     2.623298021470743
    H                2.103438204738098     2.175049640800812     0.303298021470743
    H                1.524498204738098     3.401599640800812     1.463808021470743
    H                0.416788204738098     2.759509640800812     0.181408021470743

}
e, wfn = energy('scf', return_wfn=True)
gdma(wfn)
dmavals = variable('DMA DISTRIBUTED MULTIPOLES')
charges = np.array(dmavals)
print(charges)
np.save('SSI-239ASP-244THR-1-dimer.npy', np.array(charges))