import numpy as np
set {scf_type pk
basis cc-pvdz
d_convergence 10
gdma_switch   0
gdma_limit    0
gdma_origin   [ 0.0,  0.0,  0.0 ]
}
molecule test {
    units Angstrom
    0 1
    --
    0 1
    C                1.168633237638304     2.281920462219068    -2.857436595780604
    C               -1.242366762362696     0.160920462219068    -0.827436595780604
    C               -0.001366762362696     0.843920462219068    -0.934436595780604
    C                0.058633237638304     1.432920462219068    -2.258436595780604
    C               -1.075366762361696     1.037920462219069    -2.887436595780604
    C               -0.761366762362696    -0.518079537780932     1.402563404219396
    C               -1.631366762362696    -0.515079537780932     0.327563404219396
    C                0.451633237637304     0.195920462219068     1.349563404219396
    C                0.840633237637304     0.869920462219068     0.186563404219396
    N               -1.861366762362696     0.280920462219068    -2.041436595780604
    H               -1.036366762362696    -1.036079537780932     2.310563404219396
    H               -2.568366762362697    -1.048079537780932     0.373563404219396
    H                1.099633237637304     0.199920462219068     2.213563404219396
    H                1.770633237637304     1.413920462219068     0.152563404219396
    H               -2.802366762361697    -0.043079537780932    -2.267436595780604
    H               -1.329366762362696     1.311920462219068    -3.901436595780604
    H                1.584633237637304     2.925920462219068    -2.083436595780604
    H                0.736633237637304     2.928920462219068    -3.620436595780604
    H                1.981213237637304     1.698420462219068    -3.314871595780604
    C                1.078633237637304    -3.009079537780932     3.710563404219396
    C                2.446633237637304    -2.439079537780932     4.060563404219396
    H                1.112633237637304    -4.100079537780932     3.713563404219396
    H                0.342633237637304    -2.672079537780932     4.440563404219397
    H                0.765633237637304    -2.660079537780932     2.726563404219396
    H                2.411633237637304    -1.354079537780932     3.975563404219396
    H                3.229713237637303    -2.837181537780932     3.398519404219396
    H                2.692563237637303    -2.705116537780932     5.099189404219397

}
e, wfn = energy('scf', return_wfn=True)
gdma(wfn)
dmavals = variable('DMA DISTRIBUTED MULTIPOLES')
charges = np.array(dmavals)
print(charges)
np.save('SSI-015TRP-025THR-1-dimer.npy', np.array(charges))