import numpy as np
set {scf_type pk
basis cc-pvdz
d_convergence 10
gdma_switch   0
gdma_limit    0
gdma_origin   [ 0.0,  0.0,  0.0 ]
}
molecule test {
    units Angstrom
    0 1
    --
    0 1
    C                3.401997032026526     2.154465850958231    -1.282869779696665
    C               -0.173002967973474    -0.079534149041769    -0.424869779696665
    C               -0.225002967973474     1.010465850958231    -1.279869779696666
    C                1.031997032026526    -0.454534149041769     0.155130220303335
    C                0.929997032026526     1.727465850958231    -1.539869779696665
    C                2.185997032026526     0.269465850958231    -0.117869779696665
    C                2.147997032026526     1.371465850958231    -0.971869779696665
    O               -1.300002967973474    -0.788534149041769    -0.163869779696665
    H               -1.991002967973474    -0.637534149041769    -0.844869779696665
    H               -1.171002967973474     1.335465850958231    -1.674869779696666
    H                1.049997032026526    -1.314534149041769     0.789130220303335
    H                0.845997032026526     2.621465850958232    -2.061869779696666
    H                3.117997032026526    -0.028534149041769     0.341130220303335
    H                4.025997032026526     2.225465850958231    -0.390869779696665
    H                3.108997032026525     3.168465850958231    -1.559869779696665
    H                3.984308032026526     1.718815850958231    -2.108169779696666
    C               -2.905002967973475    -1.821534149041769     2.278130220303335
    C               -4.014002967973474    -2.737534149041769     2.761130220303334
    H               -3.325002967973474    -0.921534149041769     1.833130220303335
    H               -2.245002967973474    -1.557534149041769     3.102130220303335
    H               -2.326002967973474    -2.341534149041768     1.531130220303335
    H               -3.558002967973475    -3.606534149041769     3.224130220303335
    H               -4.633442967973474    -3.060094149041769     1.911280220303335
    H               -4.601682967973474    -2.235364149041769     3.543730220303334

}
e, wfn = energy('scf', return_wfn=True)
gdma(wfn)
dmavals = variable('DMA DISTRIBUTED MULTIPOLES')
charges = np.array(dmavals)
print(charges)
np.save('SSI-009TYR-158ALA-1-dimer.npy', np.array(charges))