import numpy as np
set {scf_type pk
basis cc-pvdz
d_convergence 10
gdma_switch   0
gdma_limit    0
gdma_origin   [ 0.0,  0.0,  0.0 ]
}
molecule test {
    units Angstrom
    -1 1
    --
    -1 1
    C               -2.209193085736824    -1.587762568791895     0.753868706141943
    C               -2.787193085736825    -1.770762568791895    -0.677131293858057
    H               -3.021193085736825    -1.507762568791895     1.477868706141943
    H               -1.585193085736824    -2.441762568791895     1.014868706141943
    H               -1.607193085736824    -0.679762568791895     0.797868706141943
    H               -1.968193085736824    -1.846762568791895    -1.395131293858057
    H               -3.409073085736825    -0.899422568791895    -0.930171293858057
    H               -3.385073085736825    -2.693232568791895    -0.716941293858057
    C                0.672806914263175     0.171237431208105    -0.907131293858057
    C                1.969806914263175     0.284237431208105    -1.718131293858057
    C                0.791806914263175     0.826237431208105     0.474868706141943
    O                1.842806914263175     0.649237431208105     1.134868706141943
    O               -0.179193085736825     1.496237431208105     0.909868706141943
    H               -0.104193085736825     0.675237431208105    -1.478131293858057
    H                0.402806914263175    -0.878762568791895    -0.784131293858057
    H                2.812806914263176    -0.031762568791895    -1.105131293858057
    H                2.115806914263175     1.323237431208105    -2.019131293858057
    H                1.943986914263175    -0.341232568791895    -2.622631293858057

}
e, wfn = energy('scf', return_wfn=True)
gdma(wfn)
dmavals = variable('DMA DISTRIBUTED MULTIPOLES')
charges = np.array(dmavals)
print(charges)
np.save('SSI-003THR-182GLU-1-dimer.npy', np.array(charges))