import numpy as np
set {scf_type pk
basis cc-pvdz
d_convergence 10
gdma_switch   0
gdma_limit    0
gdma_origin   [ 0.0,  0.0,  0.0 ]
}
molecule test {
    units Angstrom
    0 1
    --
    0 1
    C               -0.630518434820282    -2.443997906228669    -1.462246626986350
    C               -1.406518434820282    -3.266997906228669    -2.483246626986350
    C               -0.835518434820282    -0.949997906228669    -1.619246626986350
    C               -1.973518434820282    -0.333997906228669    -1.102246626986350
    C                0.092481565179718    -0.155997906228669    -2.308246626986350
    C               -2.180518434820282     1.030002093771331    -1.236246626986350
    C               -0.105518434820282     1.209002093771331    -2.439246626986350
    C               -1.234518434820282     1.804002093771331    -1.904246626986350
    O               -1.433518434820282     3.143002093771331    -2.037246626986350
    H               -0.967518434820282    -2.735997906228669    -0.466246626986350
    H                0.434481565179718    -2.666997906228669    -1.530246626986350
    H               -2.470518434820282    -3.057997906228669    -2.361246626986350
    H               -2.715518434820281    -0.934997906228669    -0.589246626986350
    H                0.981481565179718    -0.606997906228669    -2.730246626986350
    H               -3.083518434820282     1.477002093771331    -0.855246626986350
    H                0.621481565179718     1.817002093771331    -2.959246626986350
    H               -2.338518434820282     3.331002093771330    -1.805246626986350
    H               -1.227198434820282    -4.339907906228669    -2.319813626986350
    H               -1.119198434820282    -2.951597906228669    -3.497135626986350
    C               -0.546518434820282     2.294002093771330     2.019753373013650
    C               -0.025518434820282    -0.125997906228669     1.573753373013650
    C                0.379481565179718     1.109002093771331     2.086753373013650
    C                0.815481565179718    -1.221997906228669     1.590753373013650
    C                2.093481565179718    -1.095997906228669     2.124753373013650
    C                1.659481565179718     1.214002093771331     2.618753373013650
    C                2.509481565179719     0.130002093771331     2.650753373013650
    O                2.909481565179719    -2.165997906228670     2.137753373013650
    H               -1.030518434820282    -0.240997906228669     1.201753373013650
    H                0.477481565179718    -2.172997906228669     1.208753373013650
    H               -0.693518434820282     2.729002093771331     2.992753373013650
    H               -1.518518434820282     1.915002093771331     1.713753373013650
    H                2.002481565179718     2.150002093771331     2.997753373013650
    H                2.508481565179718    -2.930997906228670     1.729753373013650
    H                3.506481565179719     0.220002093771331     3.054753373013650
    H               -0.256508434820282     3.079332093771331     1.306203373013650

}
e, wfn = energy('scf', return_wfn=True)
gdma(wfn)
dmavals = variable('DMA DISTRIBUTED MULTIPOLES')
charges = np.array(dmavals)
print(charges)
np.save('SSI-202TYR-241TYR-1-dimer.npy', np.array(charges))