import numpy as np
set {scf_type pk
basis cc-pvdz
d_convergence 10
gdma_switch   0
gdma_limit    0
gdma_origin   [ 0.0,  0.0,  0.0 ]
}
molecule test {
    units Angstrom
    0 1
    --
    0 1
    C                0.601414996679018     2.649362853610949     1.370730101731113
    C                1.946414996679018     2.839362853610949     0.650730101731113
    C               -0.564585003320982     3.334362853610949     0.659730101731113
    O               -1.469585003320982     3.858362853610949     1.304730101731113
    N               -0.569585003320982     3.333362853610948    -0.665269898268887
    H                0.370414996679018     1.593362853610949     1.472730101731113
    H                0.680414996679018     3.063362853610948     2.376730101731113
    H                1.832414996679018     2.536362853610949    -0.385269898268887
    H               -1.390585003320982     3.734362853610949    -1.110269898268887
    H                0.168414996679018     2.937362853610948    -1.229269898268887
    H                2.719694996679018     2.210792853610949     1.116500101731113
    H                2.245604996679018     3.897712853610949     0.670200101731113
    C                0.087414996679018    -0.383637146389051    -2.767269898268887
    C                0.271414996679018    -0.813637146389051    -0.290269898268887
    C               -0.003585003320982    -1.301637146389051    -1.570269898268887
    C                0.271414996679018    -1.661637146389051     0.819730101731113
    C               -0.007585003320982    -3.017637146389051     0.653730101731113
    C               -0.285585003320982    -2.661637146389051    -1.726269898268887
    C               -0.288585003320982    -3.521637146389051    -0.620269898268887
    O               -0.001585003320982    -3.843637146389051     1.741730101731113
    H                0.503414996679018     0.231362853610949    -0.168269898268887
    H                0.491414996679018    -1.267637146389051     1.802730101731113
    H               -0.585585003320982     0.460362853610949    -2.603269898268887
    H               -0.241585003320982    -0.902637146389051    -3.667269898268887
    H               -0.490585003320982    -3.059637146389051    -2.713269898268887
    H                0.202414996679018    -3.367637146389051     2.555730101731113
    H               -0.502585003320982    -4.574637146389050    -0.744269898268887
    H                1.110434996679018    -0.003867146389051    -2.905829898268887

}
e, wfn = energy('scf', return_wfn=True)
gdma(wfn)
dmavals = variable('DMA DISTRIBUTED MULTIPOLES')
charges = np.array(dmavals)
print(charges)
np.save('SSI-035ASN-174TYR-1-dimer.npy', np.array(charges))