import numpy as np
set {scf_type pk
basis cc-pvdz
d_convergence 10
gdma_switch   0
gdma_limit    0
gdma_origin   [ 0.0,  0.0,  0.0 ]
}
molecule test {
    units Angstrom
    -1 1
    --
    -1 1
    C                2.023633468532317    -0.443176441685621     2.195228411345930
    C                2.605633468532316    -1.333176441685621     3.293228411345930
    H                0.982633468532316    -0.701176441685621     2.017228411345930
    H                2.072633468532317     0.599823558314379     2.508228411345930
    H                2.631633468532316    -0.529176441685621     1.307228411345930
    H                3.694633468532316    -1.322176441685621     3.223228411345930
    H                2.227397468532316    -2.361746441685621     3.198488411345930
    H                2.310433468532317    -0.902736441685621     4.261518411345931
    C               -0.205366531467684     0.571823558314379    -0.381771588654070
    C                0.777633468532316     1.345823558314379    -1.268771588654070
    C               -1.440366531467683     0.091823558314379    -1.130771588654070
    O               -1.919366531467684     0.796823558314379    -2.049771588654070
    O               -1.952366531467684    -0.993176441685621    -0.773771588654070
    H                0.312633468532316    -0.298176441685621     0.015228411345930
    H               -0.531366531467684     1.196823558314379     0.450228411345930
    H                0.235633468532316     2.180823558314379    -1.713771588654070
    H                1.171540468532317     0.695083558314379    -2.063361588654070
    H                1.555832468532317     1.783203558314379    -0.626041588654070

}
e, wfn = energy('scf', return_wfn=True)
gdma(wfn)
dmavals = variable('DMA DISTRIBUTED MULTIPOLES')
charges = np.array(dmavals)
print(charges)
np.save('SSI-015THR-019ASP-1-dimer.npy', np.array(charges))