import numpy as np
set {scf_type pk
basis cc-pvdz
d_convergence 10
gdma_switch   0
gdma_limit    0
gdma_origin   [ 0.0,  0.0,  0.0 ]
}
molecule test {
    units Angstrom
    0 1
    --
    0 1
    C               -0.878181103842459     1.412993895913991     2.228080504032931
    C               -2.094181103842458     0.670993895913991     2.747080504032930
    C               -1.246181103842458     2.327993895913992     1.076080504032930
    O               -2.099181103842458     2.005993895913991     0.248080504032930
    N               -0.592181103842458     3.473993895913991     0.995080504032930
    H               -0.452181103842458     2.003993895913991     3.040080504032930
    H               -0.106181103842458     0.726993895913991     1.901080504032930
    H               -2.835181103842459     0.509993895913991     1.982080504032930
    H               -2.645181103842459     1.440993895913991     3.290080504032931
    H               -0.785181103842458     4.069993895913991     0.203080504032930
    H                0.108818896157542     3.758993895913991     1.673080504032930
    H               -1.890380103842458    -0.119266104086009     3.484610504032930
    C                1.217818896157542    -3.470006104086008     0.385080504032930
    C                0.439818896157542    -0.057006104086009    -1.081919495967070
    C                0.499818896157542    -1.115006104086009    -0.183919495967070
    C                1.007818896157542    -0.176006104086009    -2.340919495967070
    C                1.149818896157542    -2.293006104086008    -0.536919495967070
    C                1.653818896157542    -1.349006104086009    -2.696919495967070
    C                1.706818896157542    -2.405006104086009    -1.802919495967070
    H               -0.048181103842458     0.865993895913991    -0.813919495967070
    H                0.090818896157542    -1.017006104086009     0.803080504032930
    H                0.956818896157542     0.646993895913991    -3.040919495967070
    H                2.102818896157542    -1.445006104086009    -3.675919495967070
    H                2.010818896157542    -4.132006104086009     0.033080504032930
    H                0.276818896157542    -4.017006104086009     0.299080504032930
    H                2.193818896157542    -3.320006104086009    -2.106919495967070
    H                1.401076896157542    -3.243629104086009     1.445820504032930

}
e, wfn = energy('scf', return_wfn=True)
gdma(wfn)
dmavals = variable('DMA DISTRIBUTED MULTIPOLES')
charges = np.array(dmavals)
print(charges)
np.save('SSI-062GLN-112PHE-1-dimer.npy', np.array(charges))