import numpy as np
set {scf_type pk
basis cc-pvdz
d_convergence 10
gdma_switch   0
gdma_limit    0
gdma_origin   [ 0.0,  0.0,  0.0 ]
}
molecule test {
    units Angstrom
    0 1
    --
    0 1
    C               -0.934488267556322    -0.269569009860657    -3.468032472228718
    C               -1.325488267556322     0.986430990139343    -4.255032472228719
    H               -1.427488267556322    -1.144569009860657    -3.888032472228718
    H                0.144511732443678    -0.417569009860657    -3.525032472228718
    H               -1.223488267556322    -0.158569009860657    -2.426032472228718
    H               -0.673488267556322     1.790430990139343    -3.914032472228719
    H               -2.356168267556323     1.316160990139343    -4.057622472228718
    H               -1.120386267556322     0.857610990139343    -5.328037472228718
    C               -1.880488267556322     0.530430990139343     1.969967527771282
    C               -0.088488267556322     0.340430990139343     0.224967527771282
    C               -0.496488267556322     0.135430990139343     1.538967527771282
    C                1.185511732443678    -0.036569009860657    -0.189032472228718
    C                0.389511732443678    -0.450569009860657     2.440967527771282
    C                2.072511732443678    -0.610569009860657     0.713967527771282
    C                1.673511732443678    -0.823569009860657     2.029967527771281
    H               -0.763488267556322     0.804430990139343    -0.479032472228718
    H                1.474511732443678     0.095430990139343    -1.219032472228718
    H               -2.195488267556323     1.401430990139343     1.392967527771282
    H               -1.848488267556322     0.839430990139343     3.015967527771282
    H                0.091511732443678    -0.598569009860657     3.464967527771281
    H                3.064511732443677    -0.899569009860657     0.391967527771282
    H                2.369511732443677    -1.258569009860657     2.728967527771282
    H               -2.627848267556323    -0.268519009860657     1.855320427771282

}
e, wfn = energy('scf', return_wfn=True)
gdma(wfn)
dmavals = variable('DMA DISTRIBUTED MULTIPOLES')
charges = np.array(dmavals)
print(charges)
np.save('SSI-028LEU-133PHE-1-dimer.npy', np.array(charges))