import numpy as np
set {scf_type pk
basis cc-pvdz
d_convergence 10
gdma_switch   0
gdma_limit    0
gdma_origin   [ 0.0,  0.0,  0.0 ]
}
molecule test {
    units Angstrom
    0 1
    --
    0 1
    C                0.987225850236049     0.920383887097669     2.323188946424584
    C                1.281225850236049     2.226383887097669     3.057188946424584
    C                1.754225850236049    -0.213616112902331     2.909188946424583
    H               -0.084774149763951     0.712383887097669     2.304188946424583
    H                1.328225850236049     1.033383887097669     1.293188946424584
    H                2.339225850236049     2.259383887097669     3.317188946424584
    H                0.710225850236048     2.264383887097669     3.985188946424584
    H                1.945225850236049    -0.956616112902331     2.131188946424584
    H                2.731225850236048     0.119383887097669     3.268188946424583
    H                1.082294850236049     3.106438887097669     2.427959946424584
    H                1.186061850236049    -0.654458112902331     3.741558946424584
    C               -2.468774149763952     0.833383887097669    -1.736811053575416
    C                0.740225850236049    -0.794616112902331    -1.111811053575416
    C               -1.308774149763951    -0.119616112902331    -1.576811053575416
    C               -1.236774149763952    -1.455616112902331    -1.822811053575416
    N               -0.055774149763951     0.270383887097669    -1.133811053575416
    N                0.049225850236049    -1.852616112902331    -1.519811053575416
    H                1.782225850236049    -0.799616112902331    -0.809811053575416
    H                0.417225850236049    -2.795616112902331    -1.588811053575416
    H               -2.043774149763951    -2.082616112902331    -2.182811053575416
    H               -2.670774149763951     1.336383887097669    -0.789811053575416
    H               -3.348774149763951     0.242383887097669    -1.997811053575416
    H               -2.289253149763951     1.568769887097669    -2.534921053575416

}
e, wfn = energy('scf', return_wfn=True)
gdma(wfn)
dmavals = variable('DMA DISTRIBUTED MULTIPOLES')
charges = np.array(dmavals)
print(charges)
np.save('SSI-039LYS-043HIE-1-dimer.npy', np.array(charges))