import numpy as np
set {scf_type pk
basis cc-pvdz
d_convergence 10
gdma_switch   0
gdma_limit    0
gdma_origin   [ 0.0,  0.0,  0.0 ]
}
molecule test {
    units Angstrom
    0 1
    --
    0 1
    C               -1.127557391308039     1.176168413507426    -4.651331733816352
    C               -0.621557391308040    -0.093831586492574    -1.058331733816352
    C               -1.780557391308039     0.341168413507426    -0.408331733816353
    C               -0.448557391308040     0.160168413507426    -2.432331733816353
    C               -1.410557391308040     0.855168413507426    -3.176331733816353
    C               -2.768557391308040     1.035168413507426    -1.135331733816352
    C               -2.572557391308040     1.288168413507426    -2.519331733816353
    H                0.140442608691960    -0.619831586492574    -0.503331733816353
    H               -1.910557391308040     0.143168413507426     0.647668266183647
    H                0.445442608691960    -0.183831586492574    -2.936331733816353
    H               -3.667557391308040     1.373168413507426    -0.630331733816353
    H               -0.310557391308040     0.527168413507426    -4.973331733816353
    H               -0.780557391308040     2.211168413507425    -4.691331733816352
    H               -3.320557391308040     1.825168413507426    -3.087331733816352
    H               -1.966027391308039     1.006668413507426    -5.342871733816352
    C                1.367442608691960    -2.783831586492574     0.927668266183648
    C                1.497442608691961    -1.497831586492574     1.739668266183648
    C                2.223442608691960    -0.396831586492574     1.254668266183648
    C                0.842442608691961    -1.381831586492574     2.965668266183648
    C                2.274442608691960     0.807168413507426     2.006668266183647
    C                0.893442608691960    -0.198831586492574     3.713668266183647
    C                1.600442608691961     0.887168413507426     3.239668266183648
    H                1.199442608691961    -2.483831586492574    -0.104331733816352
    H                0.477442608691960    -3.305831586492574     1.286668266183648
    H                2.737442608691961    -0.473831586492574     0.304668266183648
    H                0.283442608691960    -2.228831586492575     3.339668266183647
    H                2.815442608691960     1.671168413507426     1.648668266183648
    H                0.383442608691960    -0.123831586492574     4.662668266183648
    H                1.627442608691960     1.796168413507426     3.823668266183647
    H                2.212602608691960    -3.483931586492574     1.002698266183647

}
e, wfn = energy('scf', return_wfn=True)
gdma(wfn)
dmavals = variable('DMA DISTRIBUTED MULTIPOLES')
charges = np.array(dmavals)
print(charges)
np.save('SSI-110PHE-128PHE-1-dimer.npy', np.array(charges))