import numpy as np
set {scf_type pk
basis cc-pvdz
d_convergence 10
gdma_switch   0
gdma_limit    0
gdma_origin   [ 0.0,  0.0,  0.0 ]
}
molecule test {
    units Angstrom
    0 1
    --
    0 1
    C                0.095826961896031    -2.229669304717314    -2.279088767957638
    C                0.998826961896031    -0.198669304717313     0.751911232042362
    C                0.232826961896031    -1.223669304717313     0.141911232042362
    C                0.629826961896031    -1.294669304717313    -1.237088767957638
    C                1.587826961896031    -0.343669304717313    -1.405088767957638
    C                0.862826961896031     0.137330695282687     2.089911232042362
    C               -0.057173038103969    -0.567669304717313     2.840911232042362
    C               -0.695173038103969    -1.922669304717313     0.923911232042362
    C               -0.830173038103968    -1.587669304717313     2.268911232042362
    N                1.814826961896032     0.316330695282687    -0.220088767957638
    H                2.503826961896032     1.049330695282687    -0.089088767957638
    H                1.461826961896031     0.920330695282687     2.526911232042361
    H                2.084826961896032    -0.129669304717313    -2.341088767957638
    H               -0.165173038103969    -0.333669304717313     3.890911232042362
    H               -1.294173038103968    -2.704669304717314     0.481911232042362
    H                0.337826961896031    -1.826669304717313    -3.264088767957638
    H               -0.992173038103969    -2.251669304717313    -2.191088767957638
    H               -1.543173038103969    -2.121669304717313     2.884911232042362
    H                0.478720961896031    -3.258159304717313    -2.204238767957639
    C               -1.418173038103968     2.257330695282687    -0.641088767957638
    C               -0.803173038103969     3.643330695282687    -0.425088767957638
    C               -2.008173038103969     2.048330695282687    -2.026088767957638
    H               -0.665173038103969     1.495330695282687    -0.467088767957638
    H               -2.220173038103969     2.104330695282687     0.075911232042362
    H               -1.531173038103969     4.399330695282687    -0.721088767957638
    H               -1.253173038103968     2.146330695282687    -2.799088767957638
    H               -2.436173038103969     1.047330695282687    -2.087088767957638
    H               -2.794173038103968     2.778330695282687    -2.180088767957638
    H               -0.561935038103968     3.782510695282686     0.639071232042362
    H                0.091892961896031     3.772740695282687    -1.051278767957638

}
e, wfn = energy('scf', return_wfn=True)
gdma(wfn)
dmavals = variable('DMA DISTRIBUTED MULTIPOLES')
charges = np.array(dmavals)
print(charges)
np.save('SSI-029TRP-305ILE-1-dimer.npy', np.array(charges))