import numpy as np
set {scf_type pk
basis cc-pvdz
d_convergence 10
gdma_switch   0
gdma_limit    0
gdma_origin   [ 0.0,  0.0,  0.0 ]
}
molecule test {
    units Angstrom
    0 1
    --
    0 1
    C                0.101150788730673    -0.529179571671470    -3.531983887711510
    C                0.399150788730673    -1.603179571671471    -4.567983887711510
    H               -0.490849211269327    -0.939179571671471    -2.712983887711510
    H                1.035150788730673    -0.138179571671470    -3.130983887711510
    H               -0.441849211269327     0.293820428328530    -3.995983887711510
    H                0.894150788730673    -1.165179571671470    -5.434983887711510
    H               -0.530729211269327    -2.107079571671470    -4.870323887711510
    H                1.074980788730673    -2.319409571671470    -4.077813887711510
    C               -2.592849211269327     0.570820428328529    -0.494983887711510
    C               -0.243849211269327     0.409820428328530     0.545016112288490
    C               -1.643849211269327     0.139820428328530     0.530016112288490
    C                0.282150788730673    -0.150179571671470     1.734016112288490
    C               -1.922849211269327    -0.555179571671471     1.651016112288490
    C                0.624150788730673     1.084820428328529    -0.318983887711510
    C                1.977150788730673     1.186820428328530     0.006016112288490
    C                2.465150788730673     0.628820428328529     1.190016112288490
    C                1.633150788730673    -0.058179571671470     2.057016112288490
    N               -0.767849211269327    -0.742179571671470     2.385016112288490
    H                0.250150788730673     1.512820428328530    -1.236983887711510
    H                2.653150788730673     1.705820428328530    -0.660983887711510
    H                3.513150788730673     0.725820428328529     1.417016112288490
    H               -3.408849211269327    -0.153179571671470    -0.542983887711510
    H               -2.088849211269327     0.567820428328530    -1.461983887711510
    H               -2.910849211269327    -0.905179571671471     1.936016112288490
    H               -0.724849211269327    -1.235179571671470     3.270016112288490
    H                2.015150788730673    -0.496179571671470     2.968016112288490
    H               -3.013699211269327     1.569270428328530    -0.305313887711510

}
e, wfn = energy('scf', return_wfn=True)
gdma(wfn)
dmavals = variable('DMA DISTRIBUTED MULTIPOLES')
charges = np.array(dmavals)
print(charges)
np.save('SSI-040THR-044TRP-1-dimer.npy', np.array(charges))