import numpy as np
set {scf_type pk
basis cc-pvdz
d_convergence 10
gdma_switch   0
gdma_limit    0
gdma_origin   [ 0.0,  0.0,  0.0 ]
}
molecule test {
    units Angstrom
    0 1
    --
    0 1
    C               -3.793305621285876     0.324617267858972     1.556374981909251
    C               -5.217305621285876     0.523617267858972     1.039374981909251
    H               -3.054305621285876     0.643617267858972     0.822374981909251
    H               -3.654305621285876     0.933617267858972     2.450374981909251
    H               -3.625305621285876    -0.715382732141028     1.835374981909251
    H               -5.916305621285876     0.315617267858972     1.845374981909251
    H               -5.441435621285876    -0.155852732141028     0.203864981909251
    H               -5.351685621285876     1.567717267858972     0.720324981909251
    C               -0.588305621285876    -1.657382732141027     0.711374981909251
    C               -0.906305621285876    -2.882382732141028    -0.149625018090749
    C                0.434694378714124    -0.693382732141028     0.151374981909251
    C                0.113694378714124     0.146617267858972    -0.919625018090749
    C                1.702694378714124    -0.587382732141028     0.733374981909251
    C                1.040694378714124     1.072617267858972    -1.403625018090749
    C                2.632694378714124     0.337617267858972     0.258374981909251
    C                2.298694378714124     1.168617267858972    -0.809625018090749
    O                3.186694378714124     2.088617267858972    -1.264625018090749
    H               -1.508305621285876    -1.105382732141028     0.880374981909251
    H               -0.244305621285876    -2.002382732141028     1.687374981909251
    H                0.018694378714124    -3.440382732141028    -0.284625018090749
    H               -0.872305621285876     0.110617267858972    -1.364625018090749
    H                1.964694378714124    -1.203382732141028     1.580374981909251
    H                0.780694378714124     1.715617267858973    -2.226625018090749
    H                3.608694378714124     0.421617267858972     0.712374981909251
    H                2.821694378714124     2.608617267858972    -1.984625018090749
    H               -1.320055621285876    -2.571692732141028    -1.120335018090749
    H               -1.609255621285876    -3.517862732141028     0.408964981909251

}
e, wfn = energy('scf', return_wfn=True)
gdma(wfn)
dmavals = variable('DMA DISTRIBUTED MULTIPOLES')
charges = np.array(dmavals)
print(charges)
np.save('SSI-098VAL-105TYR-1-dimer.npy', np.array(charges))