import numpy as np
set {scf_type pk
basis cc-pvdz
d_convergence 10
gdma_switch   0
gdma_limit    0
gdma_origin   [ 0.0,  0.0,  0.0 ]
}
molecule test {
    units Angstrom
    0 1
    --
    0 1
    C               -1.315587908658873    -2.286036724412906     0.584736951402504
    C               -2.631587908658873    -2.711036724412907    -0.041263048597496
    C               -1.442587908658873    -2.208036724412907     2.107736951402505
    H               -0.521587908658873    -2.982036724412907     0.326736951402504
    H               -1.028587908658873    -1.302036724412907     0.211736951402504
    H               -3.448587908658873    -2.203036724412907     0.469736951402504
    H               -1.927587908658873    -3.110036724412907     2.474736951402505
    H               -2.807807908658873    -3.793631724412907     0.042016951402504
    H               -2.693667908658873    -2.363090724412907    -1.082933048597496
    H               -0.427577908658873    -2.173641724412907     2.530306951402504
    H               -2.034857908658873    -1.330765724412907     2.407096951402504
    C                3.066412091341127     0.390963275587093     0.387736951402504
    C               -0.173587908658873     0.639963275587093    -1.678263048597495
    C                1.093412091341127     0.194963275587093    -1.165263048597496
    C               -0.807587908658873     1.728963275587093    -1.055263048597495
    C                1.718412091341127     0.851963275587093    -0.100263048597496
    C               -0.188587908658873     2.384963275587094     0.031736951402504
    C                1.073412091341127     1.950963275587093     0.490736951402504
    H               -0.643587908658873     0.129963275587093    -2.508263048597495
    H                1.564412091341127    -0.663036724412907    -1.621263048597495
    H               -1.767587908658873     2.086963275587093    -1.385263048597495
    H               -0.684587908658873     3.195963275587093     0.537736951402504
    H                2.948412091341127    -0.572036724412907     0.885736951402504
    H                3.451412091341127     1.099963275587094     1.117736951402505
    H                1.552412091341127     2.529963275587094     1.229736951402504
    H                3.800462091341128     0.286301275587093    -0.424803048597496

}
e, wfn = energy('scf', return_wfn=True)
gdma(wfn)
dmavals = variable('DMA DISTRIBUTED MULTIPOLES')
charges = np.array(dmavals)
print(charges)
np.save('SSI-176LEU-214PHE-1-dimer.npy', np.array(charges))