import numpy as np
set {scf_type pk
basis cc-pvdz
d_convergence 10
gdma_switch   0
gdma_limit    0
gdma_origin   [ 0.0,  0.0,  0.0 ]
}
molecule test {
    units Angstrom
    0 1
    --
    0 1
    C                2.202625573086102     1.209803198339360    -2.482284429788303
    C                2.194625573086102    -0.783196801660639    -0.919284429788303
    C                2.597625573086102     0.528803198339361    -1.199284429788303
    C                2.570625573086102    -1.404196801660639     0.271715570211697
    C                3.382625573086102     1.206803198339361    -0.265284429788303
    C                3.355625573086102    -0.717196801660639     1.197715570211697
    C                3.762625573086102     0.588803198339361     0.928715570211697
    H                1.615625573086102    -1.369196801660640    -1.613284429788303
    H                2.267625573086102    -2.422196801660639     0.468715570211697
    H                3.082625573086102     1.395803198339361    -3.092284429788303
    H                1.788625573086102     2.182803198339361    -2.208284429788303
    H                3.701625573086103     2.221803198339361    -0.464284429788303
    H                3.646625573086102    -1.198196801660639     2.121715570211697
    H                4.369625573086101     1.124803198339360     1.646715570211697
    H                1.445125573086102     0.671093198339361    -3.070494429788303
    C               -4.774374426913899     0.970803198339361     1.454715570211697
    C               -1.381374426913898    -0.928196801660639    -0.395284429788303
    C               -2.371374426913897    -1.702196801660639     0.210715570211697
    C               -1.507374426913898     0.459803198339361    -0.418284429788303
    C               -3.479374426913898    -1.086196801660639     0.795715570211697
    C               -2.620374426913898     1.070803198339361     0.165715570211697
    C               -3.611374426913898     0.303803198339361     0.778715570211697
    H               -0.525374426913898    -1.408196801660639    -0.844284429788303
    H               -2.297374426913898    -2.776196801660639     0.227715570211697
    H               -0.741374426913898     1.068803198339361    -0.879284429788303
    H               -4.225374426913898    -1.702196801660639     1.264715570211697
    H               -2.702374426913898     2.146803198339360     0.147715570211697
    H               -5.626374426913898     0.308803198339361     1.414715570211697
    H               -5.038374426913897     1.871803198339361     0.899715570211697
    H               -4.580094426913898     1.238473198339361     2.503815570211697

}
e, wfn = energy('scf', return_wfn=True)
gdma(wfn)
dmavals = variable('DMA DISTRIBUTED MULTIPOLES')
charges = np.array(dmavals)
print(charges)
np.save('SSI-075PHE-184PHE-1-dimer.npy', np.array(charges))