import numpy as np
set {scf_type pk
basis cc-pvdz
d_convergence 10
gdma_switch   0
gdma_limit    0
gdma_origin   [ 0.0,  0.0,  0.0 ]
}
molecule test {
    units Angstrom
    -1 1
    --
    -1 1
    C               -1.456343793961653     4.029744566512873    -0.948699195453786
    C               -1.157343793961654     3.566744566512873     0.472300804546214
    O               -1.108343793961653     2.350744566512873     0.723300804546214
    O               -0.892343793961654     4.401744566512872     1.374300804546214
    H               -0.559343793961653     4.487744566512872    -1.375699195453786
    H               -2.240343793961653     4.780744566512872    -0.928699195453786
    H               -1.776603793961653     3.209394566512873    -1.607839195453787
    C               -0.839343793961653    -4.150255433487127     0.446300804546214
    C               -1.503343793961654    -1.681255433487127     0.566300804546214
    C                0.345656206038347    -0.673255433487127    -0.192699195453786
    C               -0.616343793961654    -2.685255433487127     0.319300804546214
    C                0.576656206038347    -2.063255433487127    -0.174699195453786
    C                1.316656206038346     0.227744566512873    -0.598699195453786
    C                2.536656206038346    -0.279255433487127    -1.009699195453786
    C                1.830656206038346    -2.544255433487127    -0.577699195453786
    C                2.785656206038347    -1.652255433487127    -1.005699195453786
    N               -0.929343793961653    -0.476255433487127     0.264300804546214
    H               -1.353343793961654     0.440744566512873     0.427300804546214
    H               -2.513343793961653    -1.820255433487127     0.934300804546214
    H                1.121656206038346     1.288744566512873    -0.587699195453786
    H               -1.436343793961653    -4.345255433487128     1.338300804546213
    H                0.128656206038347    -4.624255433487128     0.608300804546214
    H                3.318656206038347     0.394744566512873    -1.330699195453786
    H                2.044656206038346    -3.599255433487127    -0.521699195453786
    H                3.759656206038347    -2.018255433487127    -1.294699195453787
    H               -1.303743793961653    -4.623267433487126    -0.431529195453786

}
e, wfn = energy('scf', return_wfn=True)
gdma(wfn)
dmavals = variable('DMA DISTRIBUTED MULTIPOLES')
charges = np.array(dmavals)
print(charges)
np.save('SSI-103GLU-108TRP-1-dimer.npy', np.array(charges))