import numpy as np
set {scf_type pk
basis cc-pvdz
d_convergence 10
gdma_switch   0
gdma_limit    0
gdma_origin   [ 0.0,  0.0,  0.0 ]
}
molecule test {
    units Angstrom
    1 1
    --
    1 1
    C               -1.579742163481299    -0.873599287282366     1.460746528110713
    C               -2.787742163481299    -1.806599287282366     1.610746528110713
    C               -0.264742163481299    -1.437599287282366     2.007746528110713
    H               -1.449742163481299    -0.696599287282366     0.404746528110713
    H               -1.792742163481299     0.100400712717634     1.905746528110713
    H               -3.046742163481299    -1.922599287282366     2.664746528110713
    H               -0.059742163481299    -2.415599287282366     1.570746528110713
    H                0.538257836518701    -0.765599287282366     1.711746528110713
    H               -2.593072163481299    -2.782949287282366     1.142946528110713
    H               -3.653922163481299    -1.398859287282366     1.069016528110713
    H               -0.236502163481299    -1.511469287282366     3.104896528110713
    C               -0.186742163481299    -0.008599287282366    -1.748253471889287
    C               -1.557742163481299     0.402400712717634    -2.273253471889287
    C                1.573257836518701     0.933400712717634    -0.284253471889287
    N                0.382257836518701     1.014400712717634    -0.860253471889287
    N                2.341257836518702    -0.117599287282366    -0.482253471889287
    N                1.997257836518701     1.906400712717634     0.496746528110713
    H               -0.252742163481299    -0.974599287282366    -1.245253471889287
    H                0.477257836518701    -0.124599287282366    -2.608253471889287
    H               -1.444742163481299     1.310400712717634    -2.867253471889287
    H               -2.225742163481299     0.613400712717634    -1.437253471889287
    H               -0.179742163481299     1.833400712717634    -0.660253471889287
    H                1.994257836518701    -0.934599287282366    -0.977253471889287
    H                3.248257836518702    -0.165599287282366    -0.044253471889287
    H                1.388257836518701     2.677400712717634     0.730746528110713
    H                2.882257836518701     1.828400712717634     0.974746528110713
    H               -1.991302163481299    -0.391859287282366    -2.898703471889287

}
e, wfn = energy('scf', return_wfn=True)
gdma(wfn)
dmavals = variable('DMA DISTRIBUTED MULTIPOLES')
charges = np.array(dmavals)
print(charges)
np.save('SSI-115GLN-118ARG-1-dimer.npy', np.array(charges))