import numpy as np
set {scf_type pk
basis cc-pvdz
d_convergence 10
gdma_switch   0
gdma_limit    0
gdma_origin   [ 0.0,  0.0,  0.0 ]
}
molecule test {
    units Angstrom
    0 1
    --
    0 1
    C                2.228984637943674    -2.558992821650921     0.910242642328833
    C                1.501984637943674    -0.441992821650921     2.082242642328833
    C                2.183984637943674    -1.053992821650921     1.032242642328833
    C                1.458984637943674     0.963007178349079     2.180242642328833
    C                2.844984637943674    -0.244992821650921     0.097242642328833
    C                2.132984637943674     1.745007178349079     1.235242642328833
    C                2.827984637943674     1.141007178349079     0.196242642328833
    O                2.108984637943674     3.111007178349079     1.314242642328833
    H                1.047984637943674    -1.053992821650921     2.835242642328833
    H                0.929984637943674     1.441007178349079     2.991242642328833
    H                2.318984637943674    -2.809992821650921    -0.145757357671167
    H                1.284984637943674    -2.982992821650921     1.250242642328833
    H                3.368984637943674    -0.704992821650921    -0.729757357671167
    H                3.343984637943674     1.740007178349079    -0.539757357671167
    H                2.665984637943674     3.516007178349079     0.646242642328833
    H                3.063564637943674    -3.028218821650921     1.451822642328833
    C               -3.864015362056326     0.129007178349079    -3.305757357671167
    C               -1.519015362056326    -0.873992821650921     0.169242642328833
    C               -1.163015362056326     0.216007178349079    -0.632757357671167
    C               -2.655015362056326    -1.633992821650921    -0.147757357671167
    C               -1.941015362056326     0.539007178349079    -1.742757357671167
    C               -3.428015362056326    -1.298992821650921    -1.258757357671167
    C               -3.067015362056326    -0.215992821650921    -2.071757357671167
    H               -0.922015362056326    -1.131992821650921     1.030242642328833
    H               -0.285015362056326     0.800007178349079    -0.393757357671167
    H               -2.932015362056326    -2.474992821650921     0.471242642328833
    H               -1.655015362056326     1.375007178349079    -2.364757357671167
    H               -4.299015362056325    -1.890992821650921    -1.498757357671167
    H               -4.311015362056326    -0.788992821650921    -3.686757357671167
    H               -3.180015362056326     0.489007178349079    -4.072757357671167
    H               -4.653827362056326     0.876495178349079    -3.140047357671167

}
e, wfn = energy('scf', return_wfn=True)
gdma(wfn)
dmavals = variable('DMA DISTRIBUTED MULTIPOLES')
charges = np.array(dmavals)
print(charges)
np.save('SSI-014TYR-082PHE-1-dimer.npy', np.array(charges))