import numpy as np
set {scf_type pk
basis cc-pvdz
d_convergence 10
gdma_switch   0
gdma_limit    0
gdma_origin   [ 0.0,  0.0,  0.0 ]
}
molecule test {
    units Angstrom
    0 1
    --
    0 1
    C                0.229153943176908    -1.249614869376507    -1.083485458129362
    C                1.180153943176908    -1.172614869376507    -2.262485458129362
    S                0.505153943176908    -2.708614869376507    -0.070485458129362
    H                0.513153943176908    -0.404614869376507    -0.472485458129362
    H               -0.814846056823092    -1.178614869376507    -1.396485458129362
    H                2.208153943176908    -1.205614869376507    -1.896485458129362
    H               -0.293846056823092    -2.359614869376507     0.948514541870638
    H                0.982643943176908    -0.244300869376507    -2.818565458129362
    H                0.993783943176908    -2.009440869376506    -2.951675458129362
    C               -0.624846056823092     1.755385130623493     0.767514541870638
    C               -2.036846056823091     2.149385130623493     1.104514541870638
    C               -0.136846056823092     2.702385130623493    -0.349485458129362
    C                0.283153943176908     1.808385130623493     1.991514541870638
    H               -0.704846056823092     0.743385130623493     0.420514541870638
    H               -2.664846056823092     1.931385130623493     0.239514541870638
    H               -2.007846056823091     3.239385130623493     1.163514541870638
    H                0.004153943176908     3.709385130623494     0.041514541870638
    H                0.819153943176908     2.344385130623493    -0.734485458129362
    H               -0.850846056823092     2.731385130623493    -1.170485458129362
    H                0.000153943176908     1.034385130623493     2.705514541870639
    H                1.314153943176908     1.627385130623493     1.685514541870638
    H                0.221153943176908     2.788385130623493     2.465514541870638
    H               -2.574986056823092     1.819051130623493     2.005234541870638

}
e, wfn = energy('scf', return_wfn=True)
gdma(wfn)
dmavals = variable('DMA DISTRIBUTED MULTIPOLES')
charges = np.array(dmavals)
print(charges)
np.save('SSI-087CYS-121LEU-1-dimer.npy', np.array(charges))