import numpy as np
set {scf_type pk
basis cc-pvdz
d_convergence 10
gdma_switch   0
gdma_limit    0
gdma_origin   [ 0.0,  0.0,  0.0 ]
}
molecule test {
    units Angstrom
    0 1
    --
    0 1
    C               -1.654874448508903     1.651891004733238     2.161419561213231
    C                0.531125551491097    -0.307108995266762    -0.261580438786769
    C               -0.581874448508903     0.330891004733238     0.328419561213231
    C                1.775125551491097    -0.262108995266762     0.362419561213231
    C               -0.451874448508903     0.995891004733238     1.526419561213231
    C                1.909125551491097     0.394891004733238     1.570419561213231
    C                0.792125551491097     1.025891004733238     2.154419561213232
    H                0.416125551491097    -0.867108995266762    -1.171580438786768
    H               -1.548874448508903     0.278891004733238    -0.149580438786769
    H                2.625125551491097    -0.764108995266762    -0.081580438786769
    H                2.855125551491096     0.374891004733238     2.080419561213231
    H               -2.179874448508903     2.229891004733239     1.400419561213232
    H               -1.311874448508903     2.352891004733238     2.922419561213231
    H                0.905125551491097     1.530891004733238     3.102419561213231
    H               -2.354324448508903     0.933049004733238     2.613119561213232
    C               -0.216874448508903    -1.580108995266762    -3.768580438786768
    C               -1.598874448508903    -1.891108995266762    -3.213580438786769
    H               -0.288874448508903    -1.300108995266761    -4.819580438786768
    H                0.239125551491097    -0.742108995266762    -3.248580438786768
    H                0.439125551491097    -2.444108995266761    -3.664580438786768
    H               -1.485874448508903    -2.406108995266762    -2.259580438786768
    H               -2.176374448508903    -2.512425295266762    -3.913910438786768
    H               -2.124364448508903    -0.939202995266762    -3.047030438786769

}
e, wfn = energy('scf', return_wfn=True)
gdma(wfn)
dmavals = variable('DMA DISTRIBUTED MULTIPOLES')
charges = np.array(dmavals)
print(charges)
np.save('SSI-061PHE-086VAL-2-dimer.npy', np.array(charges))