import numpy as np
set {scf_type pk
basis cc-pvdz
d_convergence 10
gdma_switch   0
gdma_limit    0
gdma_origin   [ 0.0,  0.0,  0.0 ]
}
molecule test {
    units Angstrom
    -1 1
    --
    -1 1
    C                0.415143859552513    -0.136596782780588     0.980965471589052
    C               -0.590856140447487    -1.286596782780588     1.153965471589052
    C               -0.163856140447487     1.242403217219412     1.299965471589052
    O               -1.168856140447487     1.344403217219412     2.041965471589052
    O                0.434143859552513     2.231403217219412     0.818965471589052
    H                1.271143859552513    -0.313596782780588     1.632965471589052
    H                0.787143859552513    -0.143596782780588    -0.041034528410948
    H               -0.028856140447487    -2.209596782780588     1.006965471589052
    H               -1.385216140447487    -1.221720782780588     0.395818471589052
    H               -1.012336140447487    -1.333188782780589     2.168947471589052
    C                1.060143859552513    -1.436596782780589    -2.558034528410948
    C                0.021143859552513    -1.873596782780588    -3.581034528410948
    H                0.874143859552513    -0.410596782780588    -2.250034528410949
    H                0.998143859552513    -2.079596782780588    -1.680034528410948
    H                2.061143859552514    -1.509596782780589    -2.983034528410948
    H               -0.963856140447487    -1.767596782780588    -3.132034528410948
    H                0.071443859552513    -1.259264782780588    -4.492114528410949
    H                0.155993859552513    -2.935743782780588    -3.833339528410948

}
e, wfn = energy('scf', return_wfn=True)
gdma(wfn)
dmavals = variable('DMA DISTRIBUTED MULTIPOLES')
charges = np.array(dmavals)
print(charges)
np.save('SSI-152ASP-158LEU-1-dimer.npy', np.array(charges))