import numpy as np
set {scf_type pk
basis cc-pvdz
d_convergence 10
gdma_switch   0
gdma_limit    0
gdma_origin   [ 0.0,  0.0,  0.0 ]
}
molecule test {
    units Angstrom
    0 1
    --
    0 1
    C               -0.425213823463857    -2.524451313385569    -0.622000097805535
    C               -1.224213823463857    -3.695451313385569    -1.174000097805535
    C                0.871786176536143    -3.002451313385569    -0.024000097805535
    O                1.461786176536143    -3.967451313385569    -0.520000097805535
    N                1.314786176536143    -2.367451313385569     1.044999902194465
    H               -0.212213823463857    -1.826451313385569    -1.426000097805535
    H               -1.001213823463857    -2.000451313385569     0.135999902194465
    H               -0.679213823463857    -4.089451313385569    -2.036000097805535
    H                2.161786176536143    -2.669451313385569     1.498999902194465
    H                0.754786176536143    -1.633451313385569     1.467999902194465
    H               -2.235853823463857    -3.384411313385568    -1.473720097805535
    H               -1.297043823463857    -4.482771313385569    -0.409260097805535
    C                1.711786176536143     2.637548686614431     2.215999902194465
    C               -0.256213823463857     1.178548686614431    -0.634000097805535
    C               -0.198213823463857     2.008548686614431     0.511999902194465
    C                1.162786176536143     1.961548686614431     0.999999902194465
    C                1.834786176536143     1.105548686614431     0.172999902194465
    C               -1.423213823463857     1.002548686614431    -1.368000097805535
    C               -2.562213823463857     1.686548686614431    -0.968000097805535
    C               -1.369213823463857     2.684548686614431     0.901999902194465
    C               -2.548213823463857     2.491548686614431     0.176999902194465
    N                0.992786176536143     0.642548686614431    -0.806000097805535
    H                1.253786176536143    -0.066451313385569    -1.489000097805535
    H               -1.438213823463857     0.361548686614431    -2.238000097805535
    H                2.872786176536143     0.816548686614431     0.293999902194465
    H               -3.481213823463857     1.556548686614431    -1.523000097805535
    H               -1.364213823463857     3.321548686614431     1.770999902194465
    H                2.558786176536143     2.052548686614431     2.563999902194465
    H                0.943786176536143     2.591548686614431     2.982999902194465
    H               -3.453213823463857     2.997548686614431     0.475999902194465
    H                2.049306176536143     3.674778686614431     2.073729902194465

}
e, wfn = energy('scf', return_wfn=True)
gdma(wfn)
dmavals = variable('DMA DISTRIBUTED MULTIPOLES')
charges = np.array(dmavals)
print(charges)
np.save('SSI-180ASN-229TRP-1-dimer.npy', np.array(charges))