import numpy as np
set {scf_type pk
basis cc-pvdz
d_convergence 10
gdma_switch   0
gdma_limit    0
gdma_origin   [ 0.0,  0.0,  0.0 ]
}
molecule test {
    units Angstrom
    0 1
    --
    0 1
    C                1.268814609444422    -0.327478187805947    -0.307780930905521
    C                2.533814609444423    -0.972478187805947     0.269219069094479
    C                0.139814609444423    -0.111478187805947     0.679219069094479
    C                0.368814609444423     0.290521812194053     2.002219069094479
    C               -1.175185390555577    -0.231478187805947     0.235219069094479
    C               -0.704185390555578     0.491521812194053     2.877219069094479
    C               -2.239185390555577    -0.030478187805947     1.102219069094479
    C               -2.010185390555577     0.327521812194053     2.424219069094479
    H                1.525814609444422     0.640521812194053    -0.738780930905521
    H                0.903814609444422    -0.961478187805947    -1.116780930905521
    H                2.961814609444423    -0.317478187805947     1.025219069094479
    H                1.370814609444422     0.449521812194053     2.362219069094479
    H               -1.377185390555578    -0.490478187805947    -0.792780930905521
    H               -0.530185390555577     0.787521812194053     3.899219069094479
    H               -3.251185390555577    -0.128478187805947     0.737219069094479
    H               -2.839185390555578     0.471521812194053     3.099219069094479
    H                3.254594609444423    -1.133406187805947    -0.546000930905521
    H                2.318074609444423    -1.955595187805947     0.712999069094479
    C                0.117814609444423    -0.283478187805947    -3.885780930905521
    C                1.041814609444423     0.912521812194053    -4.113780930905522
    H                0.703814609444422    -1.189478187805947    -3.745780930905521
    H               -0.482185390555578    -0.121478187805947    -2.990780930905521
    H               -0.548185390555577    -0.411478187805947    -4.737780930905521
    H                1.780814609444423     0.913521812194053    -3.311780930905521
    H                1.558754609444422     0.813000812194053    -5.079630930905521
    H                0.482754609444422     1.857197812194053    -4.042820930905521

}
e, wfn = energy('scf', return_wfn=True)
gdma(wfn)
dmavals = variable('DMA DISTRIBUTED MULTIPOLES')
charges = np.array(dmavals)
print(charges)
np.save('SSI-021PHE-076VAL-1-dimer.npy', np.array(charges))