import numpy as np
set {scf_type pk
basis cc-pvdz
d_convergence 10
gdma_switch   0
gdma_limit    0
gdma_origin   [ 0.0,  0.0,  0.0 ]
}
molecule test {
    units Angstrom
    0 1
    --
    0 1
    C                1.130705243533911    -3.054049967003044     1.608214697771746
    C               -0.124294756466089    -2.783049967003044     2.437214697771745
    H                0.909705243533911    -2.910049967003044     0.551214697771745
    H                1.917705243533911    -2.363049967003044     1.901214697771746
    H                1.472705243533911    -4.075049967003044     1.769214697771745
    H               -0.446294756466089    -1.761049967003044     2.236214697771746
    H               -0.915014756466089    -3.485433567003044     2.134859697771745
    H                0.101555243533911    -2.886956967003043     3.508752697771746
    C               -1.974294756466089     2.069950032996957     0.554214697771746
    C                1.147705243533911     0.023950032996956    -0.188785302228254
    C                0.104705243533911     0.658950032996956     0.499214697771746
    C                1.218705243533911     0.104950032996956    -1.579785302228255
    C               -0.869294756466089     1.378950032996957    -0.193785302228255
    C                0.242705243533911     0.821950032996956    -2.280785302228255
    C               -0.798294756466089     1.456950032996956    -1.585785302228254
    H                1.906705243533911    -0.515049967003044     0.358214697771746
    H                0.063705243533911     0.594950032996956     1.577214697771746
    H                2.029705243533911    -0.376049967003044    -2.110785302228254
    H                0.288705243533911     0.892950032996956    -3.354785302228255
    H               -2.197294756466089     3.014950032996956     0.054214697771746
    H               -1.627294756466089     2.303950032996957     1.562214697771746
    H               -1.542294756466089     2.011950032996956    -2.135785302228255
    H               -2.895164756466089     1.474558032996957     0.640817197771746

}
e, wfn = energy('scf', return_wfn=True)
gdma(wfn)
dmavals = variable('DMA DISTRIBUTED MULTIPOLES')
charges = np.array(dmavals)
print(charges)
np.save('SSI-138LEU-149PHE-1-dimer.npy', np.array(charges))