import numpy as np
set {scf_type pk
basis cc-pvdz
d_convergence 10
gdma_switch   0
gdma_limit    0
gdma_origin   [ 0.0,  0.0,  0.0 ]
}
molecule test {
    units Angstrom
    0 1
    --
    0 1
    C                0.329321364572069     0.721593634556704     1.128323654957424
    C                1.509321364572069     0.608593634556704     0.188323654957424
    C               -1.003678635427931     2.172593634556705     3.000323654957424
    S                0.592321364572069     2.113593634556705     2.232323654957424
    H               -0.596678635427931     0.852593634556705     0.569323654957424
    H                0.256321364572069    -0.188406365443295     1.723323654957424
    H                1.461321364572069    -0.361406365443295    -0.298676345042576
    H                2.424321364572069     0.638593634556704     0.781323654957424
    H               -1.127678635427931     1.311593634556704     3.658323654957424
    H               -1.081678635427931     3.094593634556705     3.577323654957424
    H               -1.778678635427931     2.159593634556705     2.238323654957424
    H                1.550711364572069     1.381853634556705    -0.592926345042576
    C               -1.127678635427931    -1.986406365443296    -0.890676345042576
    C                0.814321364572069    -2.388406365443295    -2.648676345042576
    S               -0.816678635427931    -1.632406365443296    -2.587676345042576
    H               -0.316678635427931    -1.624406365443296    -0.263676345042576
    H               -2.058678635427931    -1.505406365443296    -0.585676345042576
    H               -1.226678635427931    -3.064406365443296    -0.753676345042576
    H                0.724321364572069    -3.470406365443295    -2.588676345042576
    H                1.434321364572069    -2.017406365443296    -1.833676345042576
    H                1.242221364572069    -2.088947365443295    -3.616776345042576

}
e, wfn = energy('scf', return_wfn=True)
gdma(wfn)
dmavals = variable('DMA DISTRIBUTED MULTIPOLES')
charges = np.array(dmavals)
print(charges)
np.save('SSI-057MET-060MET-1-dimer.npy', np.array(charges))