import numpy as np
set {scf_type pk
basis cc-pvdz
d_convergence 10
gdma_switch   0
gdma_limit    0
gdma_origin   [ 0.0,  0.0,  0.0 ]
}
molecule test {
    units Angstrom
    0 1
    --
    0 1
    C               -2.336403698006055     3.059518743016404     1.770561688399866
    C               -1.708403698006054    -0.095481256983596    -0.168438311600134
    C               -1.278403698006055     1.175518743016404     0.294561688399866
    C               -2.342403698006055     1.729518743016404     1.082561688399866
    C               -3.345403698006054     0.809518743016404     1.067561688399866
    C                0.340596301993946    -0.432481256983596    -1.315438311600134
    C               -0.914403698006054    -0.902481256983596    -0.969438311600134
    C                0.796596301993945     0.813518743016404    -0.867438311600134
    C               -0.002403698006054     1.623518743016404    -0.066438311600134
    N               -2.972403698006055    -0.285481256983596     0.320561688399866
    H                0.948596301993946    -0.994481256983596    -2.016438311600134
    H               -1.296403698006054    -1.839481256983596    -1.357438311600134
    H                1.774596301993945     1.160518743016404    -1.171438311600134
    H                0.352596301993946     2.582518743016404     0.282561688399866
    H               -3.570403698006055    -1.086481256983596     0.153561688399866
    H               -4.299403698006055     0.919518743016404     1.566561688399866
    H               -2.080403698006054     3.835518743016404     1.048561688399866
    H               -1.546403698006054     3.029518743016404     2.523561688399866
    H               -3.284343698006055     3.322238743016404     2.262891688399866
    C                3.843596301993945    -1.780481256983596    -0.368438311600134
    C                5.128596301993946    -1.908481256983596    -1.156438311600134
    C                3.540596301993946    -3.104481256983596     0.319561688399866
    H                3.956596301993946    -0.995481256983596     0.381561688399866
    H                3.036596301993946    -1.514481256983596    -1.048438311600134
    H                5.010596301993946    -2.685481256983596    -1.914438311600134
    H                5.918596301993945    -2.226481256983596    -0.471438311600134
    H                3.426596301993945    -3.889481256983596    -0.431438311600134
    H                4.374596301993947    -3.390481256983596     0.943561688399866
    H                5.448202301993946    -0.972751256983596    -1.638372311600134
    H                2.623999301993945    -3.042891256983596     0.924587688399866

}
e, wfn = energy('scf', return_wfn=True)
gdma(wfn)
dmavals = variable('DMA DISTRIBUTED MULTIPOLES')
charges = np.array(dmavals)
print(charges)
np.save('SSI-037TRP-055LYS-2-dimer.npy', np.array(charges))