import numpy as np
set {scf_type pk
basis cc-pvdz
d_convergence 10
gdma_switch   0
gdma_limit    0
gdma_origin   [ 0.0,  0.0,  0.0 ]
}
molecule test {
    units Angstrom
    0 1
    --
    0 1
    C                1.330640856104603    -1.906213226421487     2.653969113151130
    C                0.169640856104603    -1.000213226421487     2.302969113151130
    O               -0.976359143895397    -1.484213226421487     2.310969113151130
    O                0.420640856104603     0.188786773578513     2.004969113151130
    H                1.952640856104603    -1.443213226421487     3.422969113151130
    H                1.941640856104603    -2.015213226421487     1.756969113151130
    H                0.991790856104603    -2.899023226421487     2.984909113151129
    C                0.717640856104603    -0.469213226421487    -1.273030886848870
    C                1.138640856104603    -1.618213226421487    -2.187030886848870
    C               -0.682359143895397     1.556786773578513    -1.466030886848870
    N                0.114640856104603     0.647786773578513    -2.011030886848870
    N               -0.984359143895397     1.510786773578513    -0.181030886848870
    N               -1.177359143895397     2.526786773578513    -2.209030886848871
    H               -0.010359143895397    -0.860213226421487    -0.559030886848870
    H                1.591640856104603    -0.115213226421487    -0.723030886848870
    H                2.025640856104603    -1.320213226421487    -2.745030886848870
    H                0.332640856104603    -1.836213226421487    -2.889030886848870
    H                0.339640856104603     0.740786773578513    -2.993030886848870
    H               -0.541359143895397     0.838786773578513     0.448969113151130
    H               -1.564359143895397     2.236786773578513     0.217969113151130
    H               -1.026359143895397     2.516786773578513    -3.210030886848870
    H               -1.954359143895397     3.055786773578514    -1.842030886848870
    H                1.342330856104603    -2.515753226421487    -1.584590886848870

}
e, wfn = energy('scf', return_wfn=True)
gdma(wfn)
dmavals = variable('DMA DISTRIBUTED MULTIPOLES')
charges = np.array(dmavals)
print(charges)
np.save('SSI-083ASP-136ARG-1-dimer.npy', np.array(charges))