import numpy as np
set {scf_type pk
basis cc-pvdz
d_convergence 10
gdma_switch   0
gdma_limit    0
gdma_origin   [ 0.0,  0.0,  0.0 ]
}
molecule test {
    units Angstrom
    0 1
    --
    0 1
    C               -2.397636595846745     0.970837430092839     0.020733449877196
    C               -3.844636595846745     1.519837430092839    -0.008266550122804
    H               -2.328636595846745     0.036837430092839    -0.532266550122804
    H               -1.731636595846745     1.696837430092839    -0.445266550122804
    H               -2.064636595846745     0.811837430092839     1.044733449877196
    H               -3.846636595846745     2.466837430092839     0.531733449877196
    H               -4.537056595846746     0.838115430092839     0.507303449877196
    H               -4.205586595846745     1.712153430092839    -1.029406550122804
    C                0.110363404153255    -2.686162569907161    -0.041266550122804
    C                0.551363404153255    -0.455162569907161    -1.110266550122804
    C                0.666363404153255    -1.282162569907161    -0.009266550122804
    C                1.068363404153255     0.830837430092839    -1.101266550122804
    C                1.322363404153255    -0.793162569907161     1.113733449877196
    C                1.690363404153255     1.319837430092839     0.018733449877196
    C                1.820363404153255     0.507837430092839     1.128733449877196
    H                0.076363404153255    -0.820162569907161    -2.007266550122804
    H                0.974363404153255     1.452837430092839    -1.981266550122804
    H                0.902363404153255    -3.384162569907161     0.231733449877196
    H               -0.191636595846745    -2.915162569907161    -1.063266550122804
    H                1.476363404153255    -1.425162569907161     1.975733449877196
    H                2.108363404153255     2.315837430092839     0.023733449877196
    H                2.370363404153256     0.855837430092839     1.988733449877196
    H               -0.757616595846745    -2.839208669907161     0.616903449877196

}
e, wfn = energy('scf', return_wfn=True)
gdma(wfn)
dmavals = variable('DMA DISTRIBUTED MULTIPOLES')
charges = np.array(dmavals)
print(charges)
np.save('SSI-129VAL-159PHE-1-dimer.npy', np.array(charges))