import numpy as np
set {scf_type pk
basis cc-pvdz
d_convergence 10
gdma_switch   0
gdma_limit    0
gdma_origin   [ 0.0,  0.0,  0.0 ]
}
molecule test {
    units Angstrom
    0 1
    --
    0 1
    C                1.016607389266596     1.294716998413809     0.880913122086148
    C                3.258607389266596    -0.233283001586191     0.793913122086148
    S                2.700607389266596     1.317716998413809     1.491913122086148
    H                0.513607389266596     0.378716998413809     1.193913122086148
    H                0.497607389266596     2.148716998413809     1.308913122086148
    H                0.983607389266596     1.393716998413809    -0.203086877913852
    H                2.851607389266596    -1.037283001586191     1.388913122086148
    H                4.335607389266596    -0.266283001586191     0.850913122086148
    H                2.922287389266596    -0.410867001586191    -0.238245877913852
    C               -1.148392610733404    -2.547283001586191     0.652913122086148
    C               -1.449392610733404    -1.362283001586191    -0.233086877913852
    C               -2.387392610733404    -0.408283001586191     0.147913122086148
    C               -0.779392610733404    -1.196283001586191    -1.440086877913852
    C               -2.661392610733404     0.682716998413809    -0.667086877913852
    C               -1.046392610733404    -0.105283001586191    -2.259086877913852
    C               -1.988392610733404     0.835716998413809    -1.871086877913852
    H               -1.314392610733404    -2.255283001586191     1.686913122086148
    H               -0.087392610733404    -2.773283001586191     0.563913122086148
    H               -2.888392610733403    -0.499283001586191     1.089913122086148
    H               -0.077392610733404    -1.943283001586191    -1.753086877913852
    H               -3.397392610733404     1.413716998413809    -0.364086877913852
    H               -0.529392610733404     0.002716998413809    -3.204086877913852
    H               -2.197392610733404     1.686716998413809    -2.499086877913851
    H               -1.729272610733404    -3.450403001586191     0.414272122086148

}
e, wfn = energy('scf', return_wfn=True)
gdma(wfn)
dmavals = variable('DMA DISTRIBUTED MULTIPOLES')
charges = np.array(dmavals)
print(charges)
np.save('SSI-224MET-229PHE-1-dimer.npy', np.array(charges))