import numpy as np
set {scf_type pk
basis cc-pvdz
d_convergence 10
gdma_switch   0
gdma_limit    0
gdma_origin   [ 0.0,  0.0,  0.0 ]
}
molecule test {
    units Angstrom
    -1 1
    --
    -1 1
    C                0.377684495418064     2.237855768046960     1.411084593852243
    C               -0.226315504581936     3.440855768046960     0.683084593852243
    C                1.900684495418064     2.343855768046960     1.547084593852243
    O                2.514684495418063     3.238855768046960     0.922084593852243
    O                2.485684495418063     1.506855768046960     2.267084593852243
    H               -0.078315504581936     2.136855768046960     2.398084593852243
    H                0.141684495418064     1.334855768046960     0.848084593852243
    H               -1.309315504581937     3.312855768046960     0.665084593852243
    H                0.170613495418064     3.497344768046960    -0.341245406147757
    H               -0.017257504581936     4.362875768046960     1.245374593852243
    C               -0.099315504581936    -1.082144231953040    -3.653915406147756
    C               -1.518315504581936    -0.761144231953040    -0.139915406147757
    C               -1.110315504581936    -0.448144231953040    -1.433915406147757
    C               -1.359315504581937    -2.049144231953040     0.353084593852243
    C               -0.542315504581936    -1.421144231953040    -2.249915406147756
    C               -0.786315504581936    -3.025144231953040    -0.448915406147757
    C               -0.395315504581936    -2.713144231953040    -1.746915406147757
    O               -1.744315504581937    -2.337144231953040     1.630084593852243
    H               -1.959315504581936     0.005855768046960     0.481084593852243
    H               -1.237315504581936     0.559855768046960    -1.805915406147757
    H               -2.119315504581937    -1.567144231953040     2.067084593852243
    H               -0.657315504581936    -4.020144231953040    -0.054915406147757
    H                0.706684495418064    -1.756144231953040    -3.941915406147757
    H                0.309684495418064    -0.071144231953040    -3.652915406147756
    H                0.038684495418064    -3.480144231953040    -2.371915406147757
    H               -0.905517504581936    -1.136179231953040    -4.400315406147757

}
e, wfn = energy('scf', return_wfn=True)
gdma(wfn)
dmavals = variable('DMA DISTRIBUTED MULTIPOLES')
charges = np.array(dmavals)
print(charges)
np.save('SSI-129ASP-148TYR-1-dimer.npy', np.array(charges))