import numpy as np
set {scf_type pk
basis cc-pvdz
d_convergence 10
gdma_switch   0
gdma_limit    0
gdma_origin   [ 0.0,  0.0,  0.0 ]
}
molecule test {
    units Angstrom
    0 1
    --
    0 1
    C               -1.030061483066742     0.755147037836441     0.042144314915578
    C               -1.930061483066742     1.901147037836441     0.502144314915578
    C                0.166938516933258     1.245147037836442    -0.721855685084422
    C                1.147938516933258     1.966147037836441    -0.043855685084422
    C                0.326938516933258     0.949147037836441    -2.072855685084422
    C                2.248938516933258     2.479147037836441    -0.725855685084422
    C                1.436938516933258     1.463147037836442    -2.756855685084422
    C                2.409938516933257     2.227147037836441    -2.084855685084422
    H               -0.676061483066742     0.267147037836441     0.945144314915578
    H               -1.596061483066743     0.040147037836441    -0.556855685084422
    H               -1.405061483066742     2.525147037836441     1.220144314915578
    H                1.026938516933258     2.166147037836441     1.011144314915578
    H               -0.395061483066742     0.340147037836441    -2.597855685084422
    H                2.995938516933258     3.060147037836441    -0.203855685084422
    H                1.572938516933258     1.245147037836442    -3.807855685084422
    H                3.272938516933257     2.601147037836441    -2.618855685084422
    H               -2.825411483066743     1.475987037836441     0.979204314915578
    H               -2.284651483066742     2.492367037836441    -0.355015685084422
    C               -1.139061483066742    -2.639852962163559     1.862144314915578
    C               -2.144061483066742    -3.141852962163559     0.800144314915578
    C               -0.628061483066742    -3.738852962163559     2.838144314915578
    O               -0.021061483066742    -2.029852962163559     1.194144314915578
    H               -1.620061483066743    -1.861852962163558     2.454144314915578
    H               -2.324061483066743    -2.312852962163559     0.117144314915578
    H               -0.264061483066742    -4.611852962163558     2.299144314915578
    H                0.184938516933258    -3.306852962163559     3.415144314915578
    H               -1.436061483066742    -4.033852962163559     3.509144314915578
    H                0.632938516933258    -1.722852962163558     1.849144314915578
    H               -3.079681483066742    -3.429502962163559     1.302014314915578
    H               -1.761301483066742    -3.983182962163559     0.203774314915578

}
e, wfn = energy('scf', return_wfn=True)
gdma(wfn)
dmavals = variable('DMA DISTRIBUTED MULTIPOLES')
charges = np.array(dmavals)
print(charges)
np.save('SSI-024PHE-089THR-1-dimer.npy', np.array(charges))