import numpy as np
set {scf_type pk
basis cc-pvdz
d_convergence 10
gdma_switch   0
gdma_limit    0
gdma_origin   [ 0.0,  0.0,  0.0 ]
}
molecule test {
    units Angstrom
    1 1
    --
    1 1
    C               -0.413586285847870     1.273183713177042    -0.991991204395418
    C                1.021413714152130     1.775183713177042    -0.921991204395418
    N               -0.706586285847870     0.723183713177042    -2.344991204395418
    H               -0.557586285847870     0.501183713177042    -0.227991204395418
    H               -1.092586285847870     2.104183713177042    -0.769991204395418
    H                1.176413714152130     2.507183713177042    -1.719991204395418
    H                1.706413714152130     0.939183713177042    -1.080991204395418
    H               -0.101586285847870    -0.059816286822958    -2.571991204395418
    H               -1.661586285847870     0.386183713177042    -2.406991204395418
    H               -0.590586285847870     1.422183713177042    -3.069991204395418
    H                1.252393714152130     2.251543713177042     0.042238795604582
    C               -0.107586285847870    -1.257816286822958     1.877008795604582
    C                0.270413714152130    -2.527816286822958     2.628008795604582
    H               -0.748586285847870    -1.508816286822958     1.030008795604582
    H               -0.647586285847870    -0.582816286822958     2.539008795604582
    H                0.796413714152130    -0.760816286822958     1.518008795604582
    H                0.952413714152130    -2.260816286822958     3.431008795604582
    H                0.779463714152130    -3.220206286822958     1.941368795604582
    H               -0.621906285847870    -2.988036286822958     3.077412795604582

}
e, wfn = energy('scf', return_wfn=True)
gdma(wfn)
dmavals = variable('DMA DISTRIBUTED MULTIPOLES')
charges = np.array(dmavals)
print(charges)
np.save('SSI-009LYS-137LEU-1-dimer.npy', np.array(charges))