import numpy as np
set {scf_type pk
basis cc-pvdz
d_convergence 10
gdma_switch   0
gdma_limit    0
gdma_origin   [ 0.0,  0.0,  0.0 ]
}
molecule test {
    units Angstrom
    0 1
    --
    0 1
    C                2.535017604073304     1.259172786128843    -1.564297998983857
    C                0.085017604073304    -0.988827213871157     1.145702001016143
    C                0.607017604073304    -1.614827213871157     0.007702001016143
    C                0.386017604073304     0.372172786128843     1.411702001016143
    C                1.419017604073304    -0.876827213871157    -0.854297998983857
    C                1.214017604073304     1.090172786128843     0.539702001016143
    C                1.721017604073304     0.465172786128843    -0.597297998983857
    H               -0.548982395926696    -1.551827213871157     1.821702001016144
    H                0.383017604073304    -2.651827213871157    -0.200297998983857
    H               -0.018982395926696     0.866172786128843     2.286702001016143
    H                1.825017604073304    -1.341827213871157    -1.740297998983857
    H                1.456017604073304     2.124172786128843     0.742702001016143
    H                3.275017604073304     0.583172786128843    -1.984297998983857
    H                3.042017604073304     2.032172786128843    -0.988297998983857
    H                1.946732604073304     1.682542786128843    -2.391747998983857
    C               -3.329982395926696    -0.036827213871157     0.768702001016143
    C               -3.790982395926696     0.157172786128843    -0.679297998983857
    H               -4.128982395926696     0.266172786128843     1.437702001016143
    H               -3.093982395926696    -1.086827213871157     0.944702001016143
    H               -2.444982395926696     0.569172786128843     0.960702001016143
    H               -4.720982395926697    -0.388827213871157    -0.817297998983857
    H               -4.014671395926696     1.222392786128843    -0.838257998983857
    H               -3.031318395926696    -0.259657213871157    -1.356917998983857

}
e, wfn = energy('scf', return_wfn=True)
gdma(wfn)
dmavals = variable('DMA DISTRIBUTED MULTIPOLES')
charges = np.array(dmavals)
print(charges)
np.save('SSI-088PHE-092LEU-1-dimer.npy', np.array(charges))