import numpy as np
set {scf_type pk
basis cc-pvdz
d_convergence 10
gdma_switch   0
gdma_limit    0
gdma_origin   [ 0.0,  0.0,  0.0 ]
}
molecule test {
    units Angstrom
    -2 1
    --
    -2 1
    C               -0.509860128012621    -1.586275644490882    -1.651290182010390
    C               -0.210860128012621    -2.049275644490882    -0.230290182010390
    O               -0.161860128012621    -3.265275644490881     0.020709817989610
    O                0.054139871987379    -1.214275644490882     0.671709817989610
    H                0.387139871987379    -1.128275644490882    -2.078290182010390
    H               -1.293860128012621    -0.835275644490882    -1.631290182010390
    H               -0.830120128012621    -2.406625644490882    -2.310430182010390
    C                1.614139871987379     1.691724355509118     0.353709817989610
    C                0.137139871987379     2.045724355509118     0.294709817989610
    O               -0.721860128012621     1.135724355509118     0.305709817989610
    O               -0.208860128012621     3.242724355509118     0.235709817989610
    H                1.837139871987379     0.951724355509118    -0.417290182010390
    H                1.834139871987378     1.250724355509118     1.326709817989610
    H                2.275669871987379     2.559024355509118     0.211699817989610

}
e, wfn = energy('scf', return_wfn=True)
gdma(wfn)
dmavals = variable('DMA DISTRIBUTED MULTIPOLES')
charges = np.array(dmavals)
print(charges)
np.save('SSI-103GLU-177ASP-1-dimer.npy', np.array(charges))