import numpy as np
set {scf_type pk
basis cc-pvdz
d_convergence 10
gdma_switch   0
gdma_limit    0
gdma_origin   [ 0.0,  0.0,  0.0 ]
}
molecule test {
    units Angstrom
    0 1
    --
    0 1
    C                0.728167966082334    -1.825480396727934    -2.006137917220853
    C               -0.078832033917666    -2.667480396727934    -3.045137917220853
    H                1.495167966082335    -1.231480396727934    -2.501137917220853
    H                0.045167966082334    -1.155480396727934    -1.487137917220853
    H                1.176167966082335    -2.502480396727934    -1.280137917220853
    H               -0.514832033917666    -1.953480396727934    -3.742137917220854
    H               -0.891832033917666    -3.153480396727935    -2.504137917220853
    H                0.499236966082334    -3.429710396727935    -3.588127917220853
    C                0.328167966082334     2.024519603272066    -1.248137917220853
    C                0.063167966082334     1.234519603272066     0.034862082779147
    C                1.112167966082335     0.949519603272066     0.932862082779147
    C               -1.245832033917665     0.801519603272066     0.345862082779147
    C                0.867167966082334     0.179519603272066     2.093862082779147
    C               -1.482832033917665     0.020519603272066     1.496862082779147
    C               -0.429832033917666    -0.234480396727934     2.378862082779146
    H               -0.346832033917666     1.639519603272066    -2.006137917220853
    H                1.342167966082335     1.806519603272066    -1.587137917220853
    H                2.113167966082335     1.285519603272066     0.709862082779147
    H               -2.062832033917665     1.022519603272066    -0.326137917220853
    H                1.675167966082334    -0.051480396727934     2.774862082779147
    H               -2.477832033917666    -0.336480396727934     1.710862082779147
    H               -0.615832033917666    -0.802480396727934     3.278862082779147
    H                0.212703966082334     3.115329603272066    -1.165663917220853

}
e, wfn = energy('scf', return_wfn=True)
gdma(wfn)
dmavals = variable('DMA DISTRIBUTED MULTIPOLES')
charges = np.array(dmavals)
print(charges)
np.save('SSI-021ILE-041PHE-1-dimer.npy', np.array(charges))