import numpy as np
set {scf_type pk
basis cc-pvdz
d_convergence 10
gdma_switch   0
gdma_limit    0
gdma_origin   [ 0.0,  0.0,  0.0 ]
}
molecule test {
    units Angstrom
    0 1
    --
    0 1
    C                2.600546473087926    -0.313528647763079     1.174681306906814
    C                0.111546473087927    -0.923528647763079     0.914681306906814
    C                1.412546473087927    -0.978528647763079     0.550681306906814
    C                0.272546473087927    -2.217528647763079    -0.833318693093186
    N               -0.582453526912073    -1.715528647763079     0.044681306906814
    N                1.495546473087927    -1.785528647763079    -0.555318693093186
    H               -0.288453526912073    -0.382528647763079     1.751681306906814
    H               -1.583453526912073    -1.891528647763079     0.065681306906814
    H                2.501546473087927     0.769471352236921     1.080681306906814
    H                3.475546473087927    -0.612528647763079     0.596681306906814
    H                0.012546473087927    -2.883528647763079    -1.649318693093186
    H                2.745681473087926    -0.587273647763079     2.230143106906814
    C               -1.586453526912073     1.905471352236921    -0.295318693093186
    C               -2.550453526912073     2.862471352236921     0.474681306906814
    C               -0.785453526912073     2.550471352236921    -1.445318693093186
    H               -0.894453526912073     1.460471352236921     0.414681306906814
    H               -2.194453526912074     1.094471352236921    -0.696318693093186
    H               -3.039453526912073     2.274471352236921     1.253681306906814
    H               -1.409453526912073     3.250471352236921    -1.994318693093186
    H               -3.326137726912073     3.262751352236921    -0.194713693093186
    H               -2.043607126912073     3.697748352236921     0.980071306906814
    H                0.088835473087927     3.082085352236921    -1.041579693093186
    H               -0.478358526912073     1.755596352236921    -2.140923693093186

}
e, wfn = energy('scf', return_wfn=True)
gdma(wfn)
dmavals = variable('DMA DISTRIBUTED MULTIPOLES')
charges = np.array(dmavals)
print(charges)
np.save('SSI-012HIE-033LEU-1-dimer.npy', np.array(charges))