import numpy as np
set {scf_type pk
basis cc-pvdz
d_convergence 10
gdma_switch   0
gdma_limit    0
gdma_origin   [ 0.0,  0.0,  0.0 ]
}
molecule test {
    units Angstrom
    0 1
    --
    0 1
    C                1.342162230612079     2.998963590696977     0.401278089592577
    C                2.426162230612078     0.746963590696977     0.734278089592577
    C                2.393162230612079     1.971963590696977     0.063278089592577
    C                3.392162230612079    -0.201036409303023     0.403278089592577
    C                4.346162230612080     0.075963590696977    -0.582721910407423
    C                3.329162230612078     2.223963590696977    -0.954721910407423
    C                4.316162230612079     1.293963590696977    -1.262721910407423
    H                1.707162230612079     0.524963590696977     1.497278089592577
    H                3.403162230612079    -1.154036409303023     0.915278089592577
    H                1.788162230612079     3.992963590696977     0.413278089592577
    H                0.987162230612079     2.793963590696977     1.411278089592577
    H                5.101162230612079    -0.660036409303023    -0.828721910407423
    H                3.308162230612079     3.167963590696977    -1.482721910407423
    H                5.053162230612080     1.510963590696977    -2.024721910407423
    H                0.490982230612079     2.983866590696977    -0.295331910407423
    C               -1.027837769387921    -0.858036409303023     1.362278089592577
    C               -1.501837769387921    -0.477036409303023     2.763278089592577
    C               -2.141837769387921    -1.105036409303023     0.366278089592577
    C               -2.621837769387921    -0.066036409303023    -0.440721910407423
    C               -2.682837769387922    -2.389036409303023     0.214278089592577
    C               -3.635837769387921    -0.279036409303023    -1.362721910407423
    C               -3.678837769387922    -2.628036409303023    -0.720721910407423
    C               -4.158837769387921    -1.565036409303023    -1.533721910407423
    H               -0.393837769387921    -0.063036409303023     0.970278089592577
    H               -0.419837769387921    -1.761036409303023     1.432278089592577
    H               -2.180837769387921    -1.252036409303023     3.111278089592577
    H               -2.208837769387921     0.924963590696977    -0.338721910407423
    H               -2.311837769387922    -3.200036409303023     0.816278089592577
    H               -3.989837769387922     0.532963590696977    -1.948721910407423
    H               -4.039837769387921    -3.634036409303023    -0.871721910407423
    H               -4.802837769387921    -1.732036409303023    -2.372721910407423
    H               -2.031367769387921     0.487110890696977     2.758758089592577
    H               -0.596357769387921    -0.408780409303023     3.384118089592577

}
e, wfn = energy('scf', return_wfn=True)
gdma(wfn)
dmavals = variable('DMA DISTRIBUTED MULTIPOLES')
charges = np.array(dmavals)
print(charges)
np.save('SSI-033PHE-058PHE-1-dimer.npy', np.array(charges))