import numpy as np
set {scf_type pk
basis cc-pvdz
d_convergence 10
gdma_switch   0
gdma_limit    0
gdma_origin   [ 0.0,  0.0,  0.0 ]
}
molecule test {
    units Angstrom
    0 1
    --
    0 1
    C               -1.322165569067549     1.749227783780277     0.489233344243515
    C               -2.649165569067549     2.094227783780277    -0.191766655756485
    C               -0.589165569067549     2.908227783780277     1.167233344243515
    H               -1.522165569067549     0.981227783780277     1.239233344243515
    H               -0.659165569067549     1.316227783780277    -0.255766655756485
    H               -2.458165569067549     2.848227783780277    -0.956766655756485
    H               -1.288165569067549     3.472227783780277     1.784233344243515
    H               -3.366025569067549     2.476347783780277     0.549915994243515
    H               -3.044035569067549     1.192797783780277    -0.683193655756485
    H                0.192424430932451     2.513827783780277     1.833242344243516
    H               -0.159395569067549     3.587197783780277     0.416035064243515
    C               -0.086165569067549    -1.730772216219723    -0.009766655756485
    C                0.320834430932451    -3.202772216219723     0.129233344243515
    C                1.072834430932451    -0.845772216219723    -0.460766655756485
    O                1.044834430932451    -0.191772216219723    -1.508766655756485
    N                2.125834430932451    -0.836772216219723     0.328233344243515
    H               -0.921165569067549    -1.624772216219723    -0.701766655756485
    H               -0.426165569067549    -1.378772216219723     0.964233344243515
    H               -0.537165569067549    -3.762772216219723     0.502233344243515
    H                1.112834430932451    -3.285772216219723     0.873233344243515
    H                2.918834430932451    -0.268772216219723     0.065233344243515
    H                2.122834430932451    -1.337772216219723     1.205233344243515
    H                0.648154430932451    -3.637282216219723    -0.826832655756485

}
e, wfn = energy('scf', return_wfn=True)
gdma(wfn)
dmavals = variable('DMA DISTRIBUTED MULTIPOLES')
charges = np.array(dmavals)
print(charges)
np.save('SSI-002LEU-005GLN-1-dimer.npy', np.array(charges))