import numpy as np
set {scf_type pk
basis cc-pvdz
d_convergence 10
gdma_switch   0
gdma_limit    0
gdma_origin   [ 0.0,  0.0,  0.0 ]
}
molecule test {
    units Angstrom
    0 1
    --
    0 1
    C               -0.005890963458428    -2.060658337063818    -2.092387027735565
    C                0.602109036541572    -0.610658337063818    -0.031387027735565
    C                0.893109036541572    -1.621658337063818    -0.999387027735565
    C                1.727109036541572    -0.506658337063818     0.822612972264435
    C                2.143109036541572    -2.078658337063818    -0.720387027735565
    C               -0.499890963458428     0.225341662936182     0.195612972264435
    C               -0.458890963458428     1.120341662936182     1.261612972264435
    C                0.673109036541573     1.198341662936182     2.092612972264435
    C                1.776109036541572     0.393341662936182     1.876612972264435
    N                2.643109036541572    -1.423658337063818     0.378612972264435
    H               -1.368890963458428     0.161341662936182    -0.441387027735565
    H               -1.309890963458428     1.760341662936182     1.444612972264435
    H                0.681109036541572     1.898341662936182     2.916612972264435
    H                0.592109036541572    -2.392658337063819    -2.939387027735565
    H               -0.595890963458428    -1.202658337063818    -2.419387027735565
    H                2.657109036541572    -2.859658337063818    -1.269387027735565
    H                3.571109036541572    -1.598658337063818     0.762612972264435
    H                2.649109036541572     0.443341662936182     2.504612972264435
    H               -0.686259963458428    -2.868418337063818    -1.784773027735565
    C               -3.535890963458427     2.060341662936182    -1.022387027735565
    C               -4.817890963458428     2.857341662936182    -1.172387027735565
    H               -3.420890963458428     1.364341662936182    -1.852387027735565
    H               -2.683890963458428     2.740341662936181    -1.017387027735565
    H               -3.526890963458428     1.514341662936182    -0.080387027735565
    H               -4.927890963458427     3.481341662936182    -0.287387027735565
    H               -5.686985763458428     2.188531662936182    -1.258224027735565
    H               -4.761849363458427     3.520500662936182    -2.048217027735566

}
e, wfn = energy('scf', return_wfn=True)
gdma(wfn)
dmavals = variable('DMA DISTRIBUTED MULTIPOLES')
charges = np.array(dmavals)
print(charges)
np.save('SSI-039TRP-064VAL-1-dimer.npy', np.array(charges))