import numpy as np
set {scf_type pk
basis cc-pvdz
d_convergence 10
gdma_switch   0
gdma_limit    0
gdma_origin   [ 0.0,  0.0,  0.0 ]
}
molecule test {
    units Angstrom
    -1 1
    --
    -1 1
    C                0.173800266480587    -0.156921361224739     1.430480444672199
    C               -1.094199733519413     0.141078638775261     2.223480444672198
    C                0.607800266480586     0.981078638775261     0.535480444672198
    O               -0.176199733519413     1.946078638775261     0.291480444672198
    O                1.773800266480587     0.897078638775261     0.045480444672198
    H                0.969800266480586    -0.384921361224739     2.121480444672198
    H                0.020800266480587    -1.050921361224739     0.835480444672199
    H               -0.915199733519413     1.036078638775261     2.816480444672198
    H               -1.308929733519413    -0.708801361224739     2.888010444672199
    H               -1.948509733519413     0.287388638775261     1.546170444672198
    C               -0.075199733519413    -2.098921361224739    -1.697519555327802
    C               -1.167199733519413    -1.638921361224739    -2.684519555327801
    H               -0.533199733519413    -2.393921361224739    -0.753519555327801
    H                0.456800266480587    -2.957921361224739    -2.108519555327801
    H                0.640800266480587    -1.294921361224739    -1.533519555327802
    H               -0.695199733519413    -1.589921361224739    -3.667519555327801
    H               -1.574459733519413    -0.646771361224739    -2.440009555327802
    H               -1.952679733519413    -2.405381361224739    -2.759119555327802

}
e, wfn = energy('scf', return_wfn=True)
gdma(wfn)
dmavals = variable('DMA DISTRIBUTED MULTIPOLES')
charges = np.array(dmavals)
print(charges)
np.save('SSI-067ASP-070ALA-1-dimer.npy', np.array(charges))