import numpy as np
set {scf_type pk
basis cc-pvdz
d_convergence 10
gdma_switch   0
gdma_limit    0
gdma_origin   [ 0.0,  0.0,  0.0 ]
}
molecule test {
    units Angstrom
    0 1
    --
    0 1
    C               -2.003707505784431    -0.414809836253505     1.431594729968731
    C               -3.295707505784431    -0.511809836253505     0.612594729968731
    C               -2.228707505784432    -0.565809836253505     2.935594729968731
    H               -1.306707505784432    -1.183809836253505     1.092594729968731
    H               -1.547707505784431     0.560190163746495     1.249594729968731
    H               -4.029707505784431     0.176190163746495     1.030594729968731
    H               -2.583707505784431    -1.574809836253505     3.141594729968731
    H               -3.727629505784431    -1.523139836253505     0.638178729968731
    H               -3.134186505784431    -0.128649836253505    -0.405786270031269
    H               -1.292577505784432    -0.421119836253505     3.494813729968731
    H               -2.991547505784431     0.140280163746495     3.295465729968731
    C                0.839292494215569     2.024190163746495    -2.442405270031269
    C                1.474292494215568     0.219190163746495     0.851594729968731
    C                1.258292494215569     1.228190163746495    -0.078405270031269
    C                1.485292494215569    -1.112809836253505     0.444594729968731
    C                1.075292494215568     0.925190163746495    -1.427405270031269
    C                1.289292494215569    -1.428809836253505    -0.894405270031269
    C                1.082292494215569    -0.412809836253505    -1.823405270031269
    H                1.621292494215569     0.466190163746495     1.894594729968731
    H                1.220292494215568     2.252190163746495     0.251594729968731
    H                1.649292494215568    -1.898809836253505     1.169594729968731
    H                1.294292494215569    -2.461809836253504    -1.215405270031269
    H               -0.138707505784431     2.454190163746495    -2.255405270031269
    H                0.811292494215568     1.587190163746495    -3.442405270031269
    H                0.937292494215568    -0.667809836253505    -2.864405270031269
    H                1.598552494215569     2.820050163746495    -2.430923270031269

}
e, wfn = energy('scf', return_wfn=True)
gdma(wfn)
dmavals = variable('DMA DISTRIBUTED MULTIPOLES')
charges = np.array(dmavals)
print(charges)
np.save('SSI-087LEU-095PHE-1-dimer.npy', np.array(charges))