import numpy as np
set {scf_type pk
basis cc-pvdz
d_convergence 10
gdma_switch   0
gdma_limit    0
gdma_origin   [ 0.0,  0.0,  0.0 ]
}
molecule test {
    units Angstrom
    0 1
    --
    0 1
    C               -0.429364967930655     0.391826588791545     4.269882374080644
    C                1.878635032069345     0.571826588791545     1.244882374080644
    C                1.021635032069345     0.945826588791545     2.285882374080644
    C                2.146635032069346    -0.764173411208455     1.022882374080644
    C                0.443635032069345    -0.023173411208455     3.111882374080643
    C                1.588635032069345    -1.730173411208455     1.835882374080644
    C                0.737635032069345    -1.369173411208455     2.873882374080643
    H                2.324635032069346     1.328826588791545     0.615882374080644
    H                0.823635032069345     1.990826588791545     2.461882374080643
    H                2.809635032069346    -1.047173411208455     0.217882374080644
    H                1.850635032069345    -2.762173411208455     1.681882374080644
    H                0.071635032069345     1.202826588791545     4.798882374080645
    H               -0.525364967930654    -0.441173411208455     4.965882374080644
    H                0.320635032069345    -2.134173411208455     3.513882374080644
    H               -1.430943967930655     0.732850488791545     3.968979374080644
    C                0.001635032069345    -1.903173411208455    -2.016117625919356
    C               -0.521364967930655     0.461826588791545    -1.343117625919356
    C               -0.604364967930655    -0.561173411208455    -2.278117625919356
    C               -1.102364967930655     1.706826588791545    -1.557117625919356
    C               -1.356364967930655    -0.343173411208455    -3.410117625919356
    C               -1.805364967930654     1.924826588791545    -2.721117625919356
    C               -1.940364967930654     0.889826588791545    -3.623117625919356
    H               -0.002364967930655     0.285826588791545    -0.417117625919356
    H               -1.008364967930655     2.487826588791545    -0.816117625919356
    H               -0.745364967930655    -2.642173411208455    -2.204117625919356
    H                0.310635032069345    -1.971173411208455    -0.972117625919356
    H               -1.516364967930655    -1.134173411208455    -4.126117625919356
    H               -2.286364967930655     2.874826588791545    -2.906117625919356
    H               -2.550364967930654     1.010826588791545    -4.499117625919355
    H                0.852855032069346    -2.146788411208455    -2.668862625919356

}
e, wfn = energy('scf', return_wfn=True)
gdma(wfn)
dmavals = variable('DMA DISTRIBUTED MULTIPOLES')
charges = np.array(dmavals)
print(charges)
np.save('SSI-042PHE-054PHE-1-dimer.npy', np.array(charges))