import numpy as np
set {scf_type pk
basis cc-pvdz
d_convergence 10
gdma_switch   0
gdma_limit    0
gdma_origin   [ 0.0,  0.0,  0.0 ]
}
molecule test {
    units Angstrom
    0 1
    --
    0 1
    C               -0.030531806642209    -1.529753002520454    -0.525496455829356
    C                1.050468193357790    -2.211753002520454    -1.388496455829356
    C                0.514468193357791    -0.547753002520454     0.450503544170644
    C                0.707468193357791     0.788246997479546     0.096503544170644
    C                0.851468193357791    -0.975753002520454     1.749503544170644
    C                1.233468193357791     1.693246997479546     1.036503544170644
    C                1.386468193357791    -0.084753002520454     2.693503544170644
    C                1.577468193357791     1.252246997479546     2.347503544170644
    H               -0.748531806642209    -1.033753002520454    -1.171496455829356
    H               -0.576531806642209    -2.288753002520454     0.028503544170644
    H                0.550468193357791    -2.966753002520454    -1.999496455829356
    H                0.420468193357791     1.137246997479546    -0.884496455829356
    H                0.676468193357791    -2.005753002520454     2.018503544170644
    H                1.349468193357791     2.731246997479546     0.759503544170644
    H                1.633468193357791    -0.430753002520454     3.688503544170644
    H                1.979468193357791     1.950246997479546     3.068503544170644
    H                1.834718193357791    -2.669357002520454    -0.767566455829356
    H                1.585638193357791    -1.531478002520454    -2.067336455829356
    C               -2.519531806642209     0.797246997479546    -2.316496455829356
    C               -3.890531806642209     0.970246997479546    -3.024496455829356
    H               -2.015531806642209    -0.076753002520454    -2.724496455829356
    H               -1.901531806642209     1.677246997479546    -2.489496455829356
    H               -2.664531806642209     0.669246997479546    -1.243496455829356
    H               -4.363531806642209     1.875246997479546    -2.649496455829356
    H               -4.504991806642209     0.091126997479546    -2.780416455829356
    H               -3.741111806642210     1.068216997479546    -4.109886455829356

}
e, wfn = energy('scf', return_wfn=True)
gdma(wfn)
dmavals = variable('DMA DISTRIBUTED MULTIPOLES')
charges = np.array(dmavals)
print(charges)
np.save('SSI-068PHE-080LEU-1-dimer.npy', np.array(charges))