import numpy as np
set {scf_type pk
basis cc-pvdz
d_convergence 10
gdma_switch   0
gdma_limit    0
gdma_origin   [ 0.0,  0.0,  0.0 ]
}
molecule test {
    units Angstrom
    0 1
    --
    0 1
    C               -2.849732710394384    -0.993723514637455     0.316955610871119
    C                0.935267289605616    -0.735723514637455     0.473955610871119
    C               -0.350732710394384    -1.096723514637455     0.072955610871119
    C                1.110267289605616     0.112276485362545     1.565955610871119
    C               -1.466732710394384    -0.615723514637455     0.760955610871119
    C                0.001267289605616     0.607276485362545     2.248955610871119
    C               -1.284732710394384     0.241276485362545     1.845955610871119
    H                1.796267289605616    -1.097723514637455    -0.065044389128881
    H               -0.479732710394384    -1.751723514637455    -0.778044389128881
    H                2.107267289605616     0.380276485362545     1.885955610871119
    H                0.138267289605616     1.267276485362545     3.095955610871119
    H               -3.564732710394384    -0.772723514637455     1.111955610871119
    H               -2.860732710394384    -2.071723514637455     0.150955610871119
    H               -2.140732710394384     0.627276485362545     2.382955610871119
    H               -3.164462710394384    -0.482823514637455    -0.604960389128881
    C                1.826267289605616     1.442276485362545    -2.456044389128881
    C                1.837267289605616     0.798276485362545    -3.845044389128881
    H                2.654267289605616     1.063276485362545    -1.857044389128881
    H                1.944267289605616     2.520276485362545    -2.554044389128881
    H                0.891267289605616     1.227276485362545    -1.942044389128881
    H                2.821267289605616     0.958276485362545    -4.287044389128882
    H                1.644233289605616    -0.282003514637455    -3.769260389128881
    H                1.089912289605616     1.278516485362545    -4.493760389128880

}
e, wfn = energy('scf', return_wfn=True)
gdma(wfn)
dmavals = variable('DMA DISTRIBUTED MULTIPOLES')
charges = np.array(dmavals)
print(charges)
np.save('SSI-092PHE-131VAL-1-dimer.npy', np.array(charges))