import numpy as np
set {scf_type pk
basis cc-pvdz
d_convergence 10
gdma_switch   0
gdma_limit    0
gdma_origin   [ 0.0,  0.0,  0.0 ]
}
molecule test {
    units Angstrom
    0 1
    --
    0 1
    C                2.972839147374262    -1.027156330423057     1.378065285262100
    C               -1.181160852625739    -0.919156330423057     0.179065285262100
    C               -0.858160852625738    -1.001156330423057     1.488065285262100
    C               -0.161160852625738    -0.855156330423057    -0.760934714737900
    C                0.495839147374262    -1.058156330423057     1.890065285262100
    C                1.169839147374262    -0.905156330423057    -0.381934714737900
    C                1.524839147374262    -0.986156330423057     0.951065285262100
    H               -2.216160852625739    -0.894156330423057    -0.132934714737900
    H               -1.642160852625738    -1.050156330423057     2.233065285262100
    H               -0.418160852625738    -0.787156330423057    -1.806934714737900
    H                0.732839147374262    -1.157156330423057     2.939065285262100
    H                1.936839147374262    -0.864156330423057    -1.142934714737900
    H                3.130839147374262    -0.269156330423057     2.145065285262100
    H                3.585839147374262    -0.763156330423057     0.521065285262100
    H                3.312199147374262    -2.001326330423057     1.759935285262100
    C               -1.999160852625738     2.333843669576943    -1.682934714737900
    C               -1.744160852625738     3.580843669576943    -2.545934714737900
    H               -2.983160852625738     1.926843669576943    -1.906934714737900
    H               -1.244160852625739     1.580843669576943    -1.903934714737900
    H               -1.919160852625738     2.593843669576943    -0.627934714737900
    H               -0.761160852625738     3.954843669576943    -2.257934714737901
    H               -2.460180852625738     4.389053669576942    -2.335914714737900
    H               -1.668420852625738     3.311853669576943    -3.609844714737900

}
e, wfn = energy('scf', return_wfn=True)
gdma(wfn)
dmavals = variable('DMA DISTRIBUTED MULTIPOLES')
charges = np.array(dmavals)
print(charges)
np.save('SSI-013PHE-036VAL-1-dimer.npy', np.array(charges))