import numpy as np
set {scf_type pk
basis cc-pvdz
d_convergence 10
gdma_switch   0
gdma_limit    0
gdma_origin   [ 0.0,  0.0,  0.0 ]
}
molecule test {
    units Angstrom
    0 1
    --
    0 1
    C               -2.482816272320236    -1.252915870514113     2.023072742680778
    C               -0.169816272320236    -0.564915870514113    -0.920927257319222
    C               -0.481816272320236     0.765084129485888    -1.212927257319222
    C               -0.796816272320236    -1.223915870514112     0.125072742680778
    C               -1.778816272320236    -0.560915870514113     0.879072742680778
    C               -1.443816272320236     1.449084129485888    -0.461927257319222
    C               -2.088816272320236     0.774084129485887     0.589072742680778
    H                0.584183727679764    -1.079915870514113    -1.495927257319222
    H                0.034183727679764     1.253084129485887    -2.024927257319222
    H               -0.539816272320236    -2.251915870514113     0.343072742680778
    H               -1.692816272320236     2.478084129485887    -0.681927257319222
    H               -2.410816272320236    -0.637915870514112     2.922072742680778
    H               -1.966816272320236    -2.188915870514113     2.229072742680778
    H               -2.838816272320236     1.289084129485888     1.171072742680779
    H               -3.546240272320236    -1.450031870514112     1.822382742680779
    C                3.562183727679764     0.349084129485888    -1.118927257319221
    C                4.653183727679765     0.320084129485887     0.015072742680778
    H                3.798183727679764     1.127084129485888    -1.845927257319221
    H                3.517183727679764    -0.612915870514112    -1.627927257319221
    H                2.574183727679765     0.539084129485887    -0.700927257319222
    H                4.379183727679764    -0.449915870514112     0.731072742680778
    H                4.706293727679764     1.274734129485888     0.558972742680778
    H                5.634363727679764     0.058388129485888    -0.407777257319222

}
e, wfn = energy('scf', return_wfn=True)
gdma(wfn)
dmavals = variable('DMA DISTRIBUTED MULTIPOLES')
charges = np.array(dmavals)
print(charges)
np.save('SSI-109PHE-181ILE-1-dimer.npy', np.array(charges))