import numpy as np
set {scf_type pk
basis cc-pvdz
d_convergence 10
gdma_switch   0
gdma_limit    0
gdma_origin   [ 0.0,  0.0,  0.0 ]
}
molecule test {
    units Angstrom
    1 1
    --
    1 1
    C                1.218667797690522    -0.876381270491361    -0.066921750048538
    C                2.349667797690523    -0.834381270491361     0.956078249951462
    C                1.269667797690522     1.463618729508638    -0.873921750048538
    N                0.645667797690522     0.457618729508638    -0.276921750048538
    N                2.497667797690522     1.319618729508639    -1.335921750048538
    N                0.671667797690522     2.628618729508638    -1.000921750048538
    H                1.582667797690522    -1.287381270491361    -1.011921750048538
    H                0.440667797690522    -1.544381270491361     0.305078249951462
    H                1.976667797690522    -0.357381270491361     1.864078249951462
    H                3.181667797690523    -0.241381270491362     0.586078249951462
    H               -0.174332202309478     0.688618729508639     0.288078249951462
    H                3.003667797690523     0.453618729508639    -1.226921750048538
    H                2.969667797690522     2.117618729508639    -1.766921750048538
    H               -0.231332202309478     2.777618729508638    -0.577921750048538
    H                1.171667797690523     3.400618729508639    -1.414921750048538
    H                2.714897797690522    -1.838055270491361     1.219218249951462
    C               -2.340332202309478    -1.445381270491361     0.844078249951462
    C               -3.242332202309478    -2.425381270491362     0.094078249951462
    C               -3.110332202309477    -0.420381270491362     1.667078249951462
    H               -1.649332202309478    -1.980381270491361     1.490078249951462
    H               -1.761332202309478    -0.911381270491361     0.093078249951462
    H               -3.938332202309478    -1.868381270491362    -0.531921750048538
    H               -3.716332202309478     0.187618729508639     0.997078249951462
    H               -3.803332202309478    -0.912381270491362     2.332078249951461
    H               -3.809452202309478    -3.044602270491362     0.804668249951462
    H               -2.630092202309478    -3.059227270491362    -0.564261750048538
    H               -2.433952202309478     0.239326729508639     2.230368249951462

}
e, wfn = energy('scf', return_wfn=True)
gdma(wfn)
dmavals = variable('DMA DISTRIBUTED MULTIPOLES')
charges = np.array(dmavals)
print(charges)
np.save('SSI-061ARG-083GLU-1-dimer.npy', np.array(charges))