import numpy as np
set {scf_type pk
basis cc-pvdz
d_convergence 10
gdma_switch   0
gdma_limit    0
gdma_origin   [ 0.0,  0.0,  0.0 ]
}
molecule test {
    units Angstrom
    0 1
    --
    0 1
    C                0.701800856211632    -0.525796166841927     3.026042074075584
    C                0.217800856211632    -1.315796166841927     4.242042074075584
    H                1.175800856211632     0.402203833158073     3.345042074075584
    H                1.430800856211632    -1.130796166841927     2.488042074075584
    H               -0.128199143788368    -0.304796166841927     2.355042074075584
    H               -0.364199143788368    -2.170796166841927     3.899042074075584
    H               -0.395375143788368    -0.685526166841927     4.902932074075584
    H                1.084958856211632    -1.678846166841927     4.813212074075584
    C                1.814800856211632     0.415203833158073    -0.388957925924416
    C                2.722800856211633    -0.109796166841927    -1.508957925924416
    C                0.344800856211632     0.356203833158073    -0.720957925924416
    C               -0.248199143788368    -0.849796166841927    -1.105957925924416
    C               -0.439199143788368     1.510203833158073    -0.671957925924416
    C               -1.609199143788368    -0.898796166841927    -1.433957925924416
    C               -1.803199143788368     1.462203833158073    -0.983957925924416
    C               -2.387199143788368     0.258203833158073    -1.375957925924416
    H                1.992800856211632    -0.182796166841927     0.502042074075584
    H                2.095800856211632     1.445203833158073    -0.158957925924416
    H                2.459800856211632    -1.150796166841927    -1.695957925924416
    H                0.332800856211632    -1.759796166841927    -1.137957925924416
    H                0.005800856211632     2.452203833158073    -0.382957925924416
    H               -2.054199143788368    -1.842796166841927    -1.712957925924417
    H               -2.400199143788368     2.363203833158073    -0.936957925924416
    H               -3.434199143788367     0.216203833158073    -1.636957925924416
    H                3.780944856211633    -0.028226166841927    -1.219687925924416
    H                2.572936856211633     0.459833833158073    -2.437967925924416

}
e, wfn = energy('scf', return_wfn=True)
gdma(wfn)
dmavals = variable('DMA DISTRIBUTED MULTIPOLES')
charges = np.array(dmavals)
print(charges)
np.save('SSI-051THR-152PHE-1-dimer.npy', np.array(charges))