import numpy as np
set {scf_type pk
basis cc-pvdz
d_convergence 10
gdma_switch   0
gdma_limit    0
gdma_origin   [ 0.0,  0.0,  0.0 ]
}
molecule test {
    units Angstrom
    1 1
    --
    1 1
    C                1.965171985451441    -0.768419306981375    -3.066860232409309
    O                1.144171985451441     0.105580693018626    -2.319860232409308
    H                0.884171985451441     0.814580693018625    -2.940860232409309
    H                2.751171985451441    -1.159419306981375    -2.419860232409309
    H                2.430171985451441    -0.225419306981374    -3.890860232409308
    H                1.365635985451441    -1.602306306981375    -3.460800232409309
    C                0.749171985451441    -0.787419306981374     0.842139767590692
    C                1.883171985451441     0.242580693018626     0.838139767590692
    C               -1.476828014548559     0.283580693018626     1.045139767590692
    N               -0.498828014548559    -0.223419306981374     0.308139767590692
    N               -1.378828014548559     0.321580693018626     2.366139767590691
    N               -2.555828014548559     0.752580693018626     0.456139767590692
    H                1.056171985451441    -1.622419306981374     0.212139767590692
    H                0.608171985451441    -1.184419306981374     1.849139767590692
    H                1.532171985451441     1.117580693018626     1.386139767590692
    H                2.141171985451441     0.547580693018625    -0.169860232409308
    H               -0.575828014548559    -0.146419306981374    -0.700860232409308
    H               -0.589828014548559    -0.097419306981374     2.827139767590691
    H               -2.130828014548559     0.702580693018626     2.920139767590692
    H               -2.651828014548559     0.659580693018626    -0.549860232409308
    H               -3.312828014548559     1.135580693018626     1.001139767590692
    H                2.776343985451441    -0.175622306981374     1.325324767590692

}
e, wfn = energy('scf', return_wfn=True)
gdma(wfn)
dmavals = variable('DMA DISTRIBUTED MULTIPOLES')
charges = np.array(dmavals)
print(charges)
np.save('SSI-044SER-118ARG-2-dimer.npy', np.array(charges))