import numpy as np
set {scf_type pk
basis cc-pvdz
d_convergence 10
gdma_switch   0
gdma_limit    0
gdma_origin   [ 0.0,  0.0,  0.0 ]
}
molecule test {
    units Angstrom
    0 1
    --
    0 1
    C               -2.442629768578659     1.570396324491730    -0.297640083778353
    C                0.302370231421341    -1.672603675508270    -0.801640083778353
    C                0.505370231421341    -0.494603675508270    -1.474640083778354
    C               -0.770629768578659    -1.817603675508270     0.039359916221647
    C               -0.394629768578659     0.556396324491730    -1.303640083778353
    C               -1.684629768578659    -0.774603675508270     0.198359916221647
    C               -1.489629768578659     0.419396324491730    -0.467640083778353
    H                1.004370231421341    -2.478603675508270    -0.940640083778353
    H                1.351370231421341    -0.393603675508270    -2.137640083778353
    H               -0.918629768578659    -2.749603675508270     0.568359916221647
    H               -0.226629768578659     1.487396324491730    -1.827640083778353
    H               -2.534629768578659    -0.889603675508270     0.854359916221647
    H               -3.456629768578659     1.187396324491730    -0.298640083778353
    H               -2.349629768578660     2.211396324491731    -1.175640083778353
    H               -2.271242768578659     2.177396324491731     0.603569916221647
    C                2.734370231421341     0.567396324491730     1.105359916221647
    C                2.658370231421341     1.166396324491730     2.462359916221647
    H                3.426370231421341     1.150396324491730     0.500359916221647
    H                3.109370231421341    -0.455603675508270     1.155359916221647
    H                1.745370231421341     0.571396324491730     0.652359916221647
    H                3.689370231421340     1.264396324491730     2.802359916221646
    H                2.191470231421341     2.160796324491731     2.518669916221647
    H                2.165520231421341     0.464975324491730     3.151639916221647

}
e, wfn = energy('scf', return_wfn=True)
gdma(wfn)
dmavals = variable('DMA DISTRIBUTED MULTIPOLES')
charges = np.array(dmavals)
print(charges)
np.save('SSI-116PHE-165VAL-1-dimer.npy', np.array(charges))