import numpy as np
set {scf_type pk
basis cc-pvdz
d_convergence 10
gdma_switch   0
gdma_limit    0
gdma_origin   [ 0.0,  0.0,  0.0 ]
}
molecule test {
    units Angstrom
    0 1
    --
    0 1
    C                1.207194119572211    -2.325645296070771     0.470220765349816
    C                1.048194119572211    -0.502645296070771    -1.269779234650184
    C                1.306194119572211    -0.877645296070771     0.050220765349816
    C                1.122194119572211     0.839354703929229    -1.653779234650184
    C                1.637194119572211     0.114354703929229     0.983220765349816
    C                1.457194119572211     1.819354703929229    -0.717779234650184
    C                1.716194119572211     1.456354703929229     0.602220765349816
    H                0.784194119572211    -1.255645296070771    -1.996779234650184
    H                0.917194119572211     1.122354703929229    -2.677779234650184
    H                1.173194119572211    -2.968645296070771    -0.410779234650184
    H                0.263194119572211    -2.443645296070771     1.004220765349816
    H                1.808194119572211    -0.130645296070771     2.020220765349816
    H                1.514194119572211     2.858354703929229    -1.015779234650184
    H                1.968194119572211     2.213354703929229     1.333220765349816
    H                2.025484119572211    -2.654398296070771     1.127730765349816
    C               -2.267805880427789    -0.222645296070771     0.423220765349816
    C               -3.371805880427789    -0.985645296070771    -0.316779234650184
    C               -2.799805880427789     0.993354703929229     1.194220765349816
    H               -1.751805880427789    -0.893645296070771     1.110220765349816
    H               -1.541805880427789     0.127354703929229    -0.311779234650184
    H               -3.923805880427789    -0.303645296070771    -0.962779234650184
    H               -3.482805880427789     0.662354703929229     1.974220765349816
    H               -4.059265880427789    -1.446719296070771     0.407660765349816
    H               -2.951885880427789    -1.747559296070771    -0.989949234650184
    H               -1.964695880427789     1.523478703929229     1.675430765349816
    H               -3.338775880427789     1.663479703929229     0.508330765349816

}
e, wfn = energy('scf', return_wfn=True)
gdma(wfn)
dmavals = variable('DMA DISTRIBUTED MULTIPOLES')
charges = np.array(dmavals)
print(charges)
np.save('SSI-068PHE-076LEU-1-dimer.npy', np.array(charges))