import numpy as np
set {scf_type pk
basis cc-pvdz
d_convergence 10
gdma_switch   0
gdma_limit    0
gdma_origin   [ 0.0,  0.0,  0.0 ]
}
molecule test {
    units Angstrom
    0 1
    --
    0 1
    C                1.575848969415188     1.464021731886191     1.049903402327039
    C                2.941848969415187     1.686021731886191     0.407903402327039
    H                1.392848969415188     2.236021731886191     1.789903402327039
    H                0.787848969415188     1.522021731886191     0.305903402327039
    H                1.534848969415188     0.477021731886191     1.511903402327039
    H                3.040848969415188     2.737021731886191     0.138903402327039
    H                3.753508969415188     1.417621731886191     1.100120402327039
    H                3.030958969415188     1.089781731886191    -0.512179597672961
    C               -1.156151030584812    -0.829978268113809    -0.167096597672961
    C               -0.963151030584812    -2.200978268113809    -0.828096597672961
    C               -2.486151030584812    -0.182978268113809    -0.476096597672961
    H               -1.037151030584812    -0.909978268113809     0.914903402327039
    H               -0.369151030584812    -0.174978268113809    -0.536096597672961
    H                0.000848969415188    -2.568978268113809    -0.491096597672961
    H               -3.287151030584812    -0.700978268113809     0.050903402327039
    H               -2.453151030584813     0.847021731886191    -0.125096597672961
    H               -2.679151030584813    -0.167978268113809    -1.548096597672961
    H               -1.744521030584812    -2.908645268113809    -0.513975597672961
    H               -0.926551030584812    -2.134232268113809    -1.925459597672961

}
e, wfn = energy('scf', return_wfn=True)
gdma(wfn)
dmavals = variable('DMA DISTRIBUTED MULTIPOLES')
charges = np.array(dmavals)
print(charges)
np.save('SSI-017LEU-050ILE-1-dimer.npy', np.array(charges))