import numpy as np
set {scf_type pk
basis cc-pvdz
d_convergence 10
gdma_switch   0
gdma_limit    0
gdma_origin   [ 0.0,  0.0,  0.0 ]
}
molecule test {
    units Angstrom
    0 1
    --
    0 1
    C               -2.986310651591580     1.825745410008160     1.795900030389875
    C               -4.285310651591581     1.305745410008160     2.427900030389875
    H               -2.151310651591580     1.679745410008160     2.481900030389875
    H               -2.793310651591580     1.288745410008160     0.867900030389875
    H               -3.085310651591580     2.887745410008160     1.566900030389875
    H               -5.090310651591579     1.451745410008160     1.707900030389875
    H               -4.535310651591581     1.876743410008160     3.334250030389875
    H               -4.214014651591580     0.229820410008160     2.645390030389875
    C                1.847689348408420    -2.604254589991840    -1.781099969610125
    C               -0.051310651591580    -0.091254589991840     0.347900030389875
    C                0.339689348408420    -1.283254589991840    -0.257099969610125
    C                0.675689348408420     1.078745410008160     0.129900030389875
    C                1.448689348408420    -1.316254589991840    -1.104099969610125
    C                1.793689348408419     1.050745410008160    -0.698099969610125
    C                2.170689348408420    -0.146254589991840    -1.320099969610125
    H               -0.914310651591580    -0.082254589991840     0.996900030389875
    H               -0.228310651591580    -2.184254589991840    -0.079099969610125
    H                0.368689348408420     2.002745410008160     0.598900030389875
    H                2.361689348408420     1.953745410008160    -0.871099969610125
    H                1.635689348408419    -3.440254589991840    -1.112099969610125
    H                2.925689348408420    -2.589254589991840    -1.951099969610125
    H                3.028689348408420    -0.156254589991840    -1.979099969610125
    H                1.342104128408420    -2.772065589991840    -2.743499969610125

}
e, wfn = energy('scf', return_wfn=True)
gdma(wfn)
dmavals = variable('DMA DISTRIBUTED MULTIPOLES')
charges = np.array(dmavals)
print(charges)
np.save('SSI-065ALA-070PHE-1-dimer.npy', np.array(charges))