import numpy as np
set {scf_type pk
basis cc-pvdz
d_convergence 10
gdma_switch   0
gdma_limit    0
gdma_origin   [ 0.0,  0.0,  0.0 ]
}
molecule test {
    units Angstrom
    0 1
    --
    0 1
    C                3.007863411043496    -4.014724987564029    -0.686891176561407
    C                2.882863411043496    -4.473724987564030     0.765108823438593
    H                3.948863411043496    -3.504724987564030    -0.856891176561407
    H                2.949863411043496    -4.877724987564029    -1.352891176561407
    H                2.187863411043496    -3.346724987564030    -0.942891176561407
    H                1.893863411043496    -4.898724987564030     0.920108823438593
    H                3.030643411043496    -3.622482987564030     1.445951823438593
    H                3.634063411043496    -5.245869987564030     0.987578823438593
    C               -1.072136588956504     2.545275012435970     2.476108823438593
    C               -0.564136588956504     0.984275012435971     0.438108823438593
    C               -1.178136588956504     2.131275012435971     1.045108823438593
    C               -0.935136588956504     0.980275012435970    -0.933891176561407
    C               -1.871136588956504     2.761275012435970     0.056108823438593
    C                0.689863411043496    -1.030724987564029     0.026108823438593
    C                0.310863411043496    -1.003724987564030    -1.324891176561407
    C                0.263863411043496    -0.041724987564029     0.913108823438593
    C               -0.507136588956504    -0.000724987564029    -1.820891176561407
    N               -1.731136588956504     2.076275012435971    -1.128891176561407
    H                1.333863411043496    -1.812724987564030     0.389108823438593
    H                0.726863411043496    -1.737724987564030    -1.990891176561407
    H                0.592863411043496    -0.040724987564029     1.938108823438593
    H               -0.780136588956504     0.042275012435971    -2.864891176561407
    H               -1.050136588956504     1.657275012435970     3.099108823438593
    H               -1.969136588956504     3.113275012435970     2.717108823438593
    H               -2.434136588956504     3.678275012435970     0.186108823438593
    H               -2.045136588956504     2.417275012435971    -2.041891176561407
    H               -0.201286588956504     3.177903012435970     2.702818823438593

}
e, wfn = energy('scf', return_wfn=True)
gdma(wfn)
dmavals = variable('DMA DISTRIBUTED MULTIPOLES')
charges = np.array(dmavals)
print(charges)
np.save('SSI-086ALA-104TRP-1-dimer.npy', np.array(charges))