import numpy as np
set {scf_type pk
basis cc-pvdz
d_convergence 10
gdma_switch   0
gdma_limit    0
gdma_origin   [ 0.0,  0.0,  0.0 ]
}
molecule test {
    units Angstrom
    0 1
    --
    0 1
    C                2.260581999756018     3.000912053298515     0.100227064285746
    C                1.288581999756018     2.056912053298515     0.779227064285746
    O                0.098581999756018     2.048912053298515     0.478227064285746
    N                1.776581999756018     1.250912053298516     1.708227064285746
    H                2.496581999756018     3.794912053298515     0.789227064285746
    H                1.740581999756018     3.470912053298515    -0.733772935714254
    H                1.092581999756018     0.645912053298516     2.146227064285746
    H                2.746581999756018     0.999912053298516     1.741227064285746
    H                3.167806199756019     2.505672053298516    -0.276181935714254
    C               -2.723418000243982    -0.760087946701484    -1.702772935714254
    C                0.510581999756018    -1.459087946701485    -0.206772935714254
    C               -1.561418000243982    -1.305087946701485    -0.926772935714254
    C               -1.527418000243982    -2.250087946701484     0.048227064285746
    N               -0.280418000243982    -0.815087946701484    -1.052772935714254
    N               -0.218418000243982    -2.336087946701485     0.473227064285746
    H                1.575581999756018    -1.300087946701485    -0.087772935714254
    H                0.141581999756018    -2.963087946701484     1.185227064285746
    H               -2.370418000243982    -2.817087946701484     0.415227064285746
    H               -3.442418000243982    -1.565087946701484    -1.854772935714254
    H               -2.384418000243982    -0.433087946701485    -2.683772935714254
    H               -3.215250000243982     0.077902053298516    -1.187142935714254

}
e, wfn = energy('scf', return_wfn=True)
gdma(wfn)
dmavals = variable('DMA DISTRIBUTED MULTIPOLES')
charges = np.array(dmavals)
print(charges)
np.save('SSI-106ASN-130HIE-1-dimer.npy', np.array(charges))