import numpy as np
set {scf_type pk
basis cc-pvdz
d_convergence 10
gdma_switch   0
gdma_limit    0
gdma_origin   [ 0.0,  0.0,  0.0 ]
}
molecule test {
    units Angstrom
    0 1
    --
    0 1
    C                1.964973805575939     1.135981197992408    -2.792087845594953
    C               -1.072026194424061    -0.195018802007592    -0.922087845594953
    C               -1.387026194424061     0.882981197992408    -0.102087845594953
    C                0.008973805575939    -0.110018802007592    -1.790087845594953
    C                0.784973805575939     1.045981197992408    -1.850087845594953
    C               -0.616026194424061     2.037981197992408    -0.143087845594953
    C                0.463973805575939     2.114981197992408    -1.016087845594953
    O               -2.445026194424061     0.802981197992408     0.753912154405047
    H               -1.660026194424061    -1.094018802007592    -0.861087845594953
    H                0.244973805575939    -0.952018802007592    -2.428087845594953
    H               -0.807026194424061     2.847981197992408     0.544912154405047
    H               -2.712026194424061     1.673981197992408     1.063912154405047
    H                2.061973805575939     2.167981197992408    -3.133087845594953
    H                1.742973805575939     0.529981197992408    -3.665087845594953
    H                1.073973805575939     3.009981197992408    -1.035087845594953
    H                2.919933805575939     0.823151197992408    -2.344667845594953
    C                0.767973805575939    -2.023018802007592     1.866912154405047
    C                1.703973805575939    -3.219018802007592     2.038912154405047
    C               -0.122026194424061    -1.865018802007592     3.096912154405047
    H                1.344973805575939    -1.113018802007592     1.702912154405047
    H                0.131973805575939    -2.191018802007592     0.996912154405047
    H                2.063973805575939    -3.529018802007592     1.057912154405047
    H                1.130973805575939    -4.049018802007592     2.450912154405047
    H               -0.824026194424061    -2.701018802007592     3.125912154405047
    H                0.475973805575939    -1.915018802007592     4.006912154405048
    H                2.564173805575939    -3.017848802007592     2.694342154405047
    H               -0.688566194424061    -0.922788802007592     3.061602154405047

}
e, wfn = energy('scf', return_wfn=True)
gdma(wfn)
dmavals = variable('DMA DISTRIBUTED MULTIPOLES')
charges = np.array(dmavals)
print(charges)
np.save('SSI-072TYR-076ARG-2-dimer.npy', np.array(charges))