import numpy as np
set {scf_type pk
basis cc-pvdz
d_convergence 10
gdma_switch   0
gdma_limit    0
gdma_origin   [ 0.0,  0.0,  0.0 ]
}
molecule test {
    units Angstrom
    0 1
    --
    0 1
    C               -3.727138340743087    -1.826805445769031    -1.201381553101488
    C               -0.578138340743086    -0.132805445769031     0.010618446898512
    C               -1.911138340743087    -0.043805445769031    -0.451381553101488
    C               -2.372138340743086    -1.373805445769031    -0.712381553101488
    C               -1.315138340743087    -2.195805445769031    -0.431381553101488
    C                0.173861659256914     0.976194554230969     0.367618446898512
    C               -0.481138340743086     2.182194554230970     0.292618446898512
    C               -1.814138340743087     2.327194554230970    -0.158381553101488
    C               -2.544138340743087     1.209194554230969    -0.529381553101488
    N               -0.224138340743086    -1.454805445769031     0.003618446898512
    H                1.183861659256914     0.894194554230969     0.724618446898512
    H                0.053861659256914     3.075194554230970     0.588618446898512
    H                0.661861659256914    -1.838805445769031     0.334618446898512
    H               -2.269138340743087     3.309194554230969    -0.193381553101488
    H               -1.341138340743087    -3.278805445769030    -0.508381553101488
    H               -3.574138340743086     1.295194554230969    -0.845381553101488
    H               -4.500138340743086    -1.323805445769031    -0.619381553101488
    H               -3.814138340743087    -2.890805445769030    -0.975381553101488
    H               -3.922152340743086    -1.702770645769031    -2.276831553101488
    C                3.876861659256913     0.304194554230969     0.698618446898512
    C                4.557861659256913    -1.059805445769031     0.695618446898512
    C                4.849861659256913     1.401194554230969     1.131618446898512
    H                3.432861659256914     0.540194554230970    -0.267381553101488
    H                3.090861659256913     0.274194554230969     1.453618446898512
    H                5.061861659256913    -1.191805445769031     1.657618446898512
    H                5.368861659256914     1.109194554230969     2.045618446898512
    H                5.595861659256913     1.612194554230969     0.383618446898512
    H                5.311301659256913    -1.133438445769031    -0.102451553101488
    H                3.824491659256913    -1.878131145769031     0.645518446898512
    H                4.245641659256914     2.299036554230970     1.328598446898512

}
e, wfn = energy('scf', return_wfn=True)
gdma(wfn)
dmavals = variable('DMA DISTRIBUTED MULTIPOLES')
charges = np.array(dmavals)
print(charges)
np.save('SSI-035TRP-064ARG-1-dimer.npy', np.array(charges))