import numpy as np
set {scf_type pk
basis cc-pvdz
d_convergence 10
gdma_switch   0
gdma_limit    0
gdma_origin   [ 0.0,  0.0,  0.0 ]
}
molecule test {
    units Angstrom
    0 1
    --
    0 1
    C                1.221410745640776    -2.422569831069955    -1.366997286628063
    C                2.603410745640776    -1.799569831069955    -1.220997286628063
    C                0.543410745640776    -2.075569831069955    -2.686997286628063
    H                1.285410745640776    -3.507569831069955    -1.280997286628063
    H                0.592410745640776    -2.053569831069955    -0.554997286628063
    H                2.506410745640776    -0.721569831069955    -1.361997286628063
    H                3.228410745640776    -2.157569831069955    -1.992997286628063
    H               -0.510589254359224    -2.347569831069955    -2.590997286628063
    H                0.597410745640776    -0.998569831069955    -2.861997286628063
    H                3.053185745640776    -1.964369831069955    -0.230777286628063
    H                0.971410745640776    -2.621289831069955    -3.540817286628063
    C                0.764410745640776     1.287430168930045     3.285002713371937
    C                0.104410745640776     1.093430168930045    -0.459997286628063
    C               -1.217589254359224     0.654430168930045    -0.486997286628063
    C                0.741410745640776     1.298430168930045     0.764002713371937
    C                0.065410745640776     1.074430168930045     1.968002713371937
    C               -1.902589254359224     0.414430168930045     0.706002713371937
    C               -1.259589254359224     0.623430168930045     1.927002713371937
    O               -1.843589254359224     0.436430168930045    -1.681997286628063
    H                0.615410745640776     1.273430168930045    -1.390997286628063
    H                1.770410745640776     1.631430168930045     0.783002713371937
    H               -2.928589254359224     0.075430168930045     0.687002713371937
    H               -2.760589254359224     0.163430168930045    -1.564997286628063
    H                0.055410745640776     1.686430168930045     4.013002713371937
    H                1.544410745640776     2.036430168930045     3.142002713371937
    H               -1.795589254359224     0.445430168930045     2.850002713371937
    H                1.219920745640776     0.367801168930045     3.680973713371937

}
e, wfn = energy('scf', return_wfn=True)
gdma(wfn)
dmavals = variable('DMA DISTRIBUTED MULTIPOLES')
charges = np.array(dmavals)
print(charges)
np.save('SSI-085LYS-094TYR-1-dimer.npy', np.array(charges))