import numpy as np
set {scf_type pk
basis cc-pvdz
d_convergence 10
gdma_switch   0
gdma_limit    0
gdma_origin   [ 0.0,  0.0,  0.0 ]
}
molecule test {
    units Angstrom
    0 1
    --
    0 1
    C               -2.642046433550152    -0.409858333189716     0.542915967675141
    C               -1.403046433550152    -0.138858333189716    -0.244084032324858
    C               -0.792046433550152    -0.984858333189715    -1.109084032324858
    C               -0.588046433550152     1.048141666810285    -0.238084032324858
    C                0.489953566449848     0.837141666810284    -1.135084032324858
    C               -0.665046433550152     2.273141666810284     0.428915967675142
    C                1.451953566449848     1.794141666810285    -1.380084032324858
    C                0.275953566449848     3.237141666810284     0.161915967675142
    C                1.323953566449848     3.009141666810284    -0.733084032324859
    N                0.332953566449848    -0.418858333189716    -1.636084032324858
    H               -2.483046433550152    -0.057858333189716     1.549915967675142
    H               -2.774046433550152    -1.491858333189716     0.608915967675142
    H               -1.154046433550152    -1.973858333189715    -1.362084032324858
    H                0.880953566449848    -0.856858333189716    -2.382084032324859
    H               -1.444046433550152     2.456141666810284     1.150915967675142
    H                2.263953566449848     1.601141666810284    -2.066084032324858
    H                0.225953566449848     4.171141666810285     0.693915967675142
    H                2.057953566449848     3.785141666810285    -0.905084032324858
    H               -3.567999433550152     0.019207666810284     0.132415967675142
    C                0.171953566449848    -3.113858333189716     1.660915967675142
    C                0.943953566449848    -2.245858333189716     2.653915967675141
    C                1.020953566449848    -3.496858333189716     0.458915967675142
    H               -0.181046433550152    -4.018858333189716     2.158915967675142
    H               -0.695046433550152    -2.554858333189716     1.313915967675142
    H                1.354953566449848    -1.388858333189716     2.117915967675142
    H                1.377953566449848    -2.589858333189716    -0.021084032324858
    H                1.878953566449848    -4.065858333189715     0.806915967675142
    H                1.766173566449847    -2.817411333189716     3.109195967675142
    H                0.265293566449848    -1.853486333189716     3.425585967675141
    H                0.501303566449848    -4.079268333189716    -0.316174032324858

}
e, wfn = energy('scf', return_wfn=True)
gdma(wfn)
dmavals = variable('DMA DISTRIBUTED MULTIPOLES')
charges = np.array(dmavals)
print(charges)
np.save('SSI-031TRP-168GLN-1-dimer.npy', np.array(charges))