import numpy as np
set {scf_type pk
basis cc-pvdz
d_convergence 10
gdma_switch   0
gdma_limit    0
gdma_origin   [ 0.0,  0.0,  0.0 ]
}
molecule test {
    units Angstrom
    0 1
    --
    0 1
    C               -0.335337231719964    -2.389729989247555    -1.525148799570596
    C                0.622662768280036    -0.150729989247555    -0.920148799570596
    C               -0.503337231719964    -0.923729989247555    -1.199148799570596
    C                0.503662768280036     1.212270010752445    -0.548148799570596
    C               -1.773337231719964    -0.308729989247555    -1.139148799570596
    C               -0.744337231719964     1.809270010752445    -0.448148799570596
    C               -1.905337231719964     1.060270010752445    -0.781148799570596
    O               -0.782337231719964     3.135270010752444    -0.067148799570596
    H                1.609662768280036    -0.593729989247555    -0.968148799570596
    H                1.384662768280036     1.791270010752445    -0.312148799570596
    H               -0.766337231719964    -2.956729989247556    -0.698148799570596
    H                0.726662768280036    -2.618729989247556    -1.539148799570596
    H               -2.662337231719964    -0.880729989247555    -1.358148799570596
    H               -2.881337231719964     1.520270010752445    -0.740148799570596
    H               -1.681337231719964     3.473270010752445    -0.021148799570596
    H               -0.797605231719964    -2.738230989247556    -2.460488799570596
    C                2.368662768280036    -1.177729989247555     2.363851200429405
    C                2.104662768280036    -2.209729989247555     3.489851200429404
    H                1.700662768280036    -0.322729989247555     2.481851200429404
    H                3.399662768280036    -0.826729989247555     2.423851200429404
    H                2.197662768280036    -1.634729989247555     1.388851200429404
    H                2.302662768280036    -1.716729989247555     4.438851200429405
    H                1.057275868280036    -2.545209989247555     3.469021200429404
    H                2.802208168280036    -3.053534989247555     3.382971200429404

}
e, wfn = energy('scf', return_wfn=True)
gdma(wfn)
dmavals = variable('DMA DISTRIBUTED MULTIPOLES')
charges = np.array(dmavals)
print(charges)
np.save('SSI-112TYR-128LEU-1-dimer.npy', np.array(charges))