import numpy as np
set {scf_type pk
basis cc-pvdz
d_convergence 10
gdma_switch   0
gdma_limit    0
gdma_origin   [ 0.0,  0.0,  0.0 ]
}
molecule test {
    units Angstrom
    0 1
    --
    0 1
    C                2.358215562897103     2.396771882528030     0.973309702678834
    C               -1.268784437102897     1.252771882528030     0.976309702678834
    C               -0.113784437102897     1.969771882528030     0.716309702678834
    C               -1.216784437102897     0.162771882528030     1.831309702678834
    C                1.104215562897103     1.613771882528030     1.284309702678834
    C               -0.011784437102897    -0.212228117471970     2.411309702678834
    C                1.142215562897103     0.511771882528030     2.138309702678834
    O               -2.343784437102897    -0.546228117471970     2.092309702678834
    H               -2.214784437102897     1.577771882528030     0.581309702678834
    H               -0.197784437102897     2.863771882528030     0.194309702678834
    H               -3.034784437102897    -0.395228117471970     1.411309702678834
    H                0.006215562897103    -1.072228117471970     3.045309702678834
    H                2.982215562897103     2.467771882528030     1.865309702678834
    H                2.065215562897103     3.410771882528030     0.696309702678834
    H                2.074215562897103     0.213771882528030     2.597309702678834
    H                2.940526562897103     1.961121882528030     0.148009702678834
    C                0.284215562897103    -0.235228117471970    -2.199690297321166
    C                0.832215562897103     0.079771882528030    -3.596690297321166
    C               -0.053784437102897    -1.700228117471970    -2.011690297321166
    O                0.001215562897103    -2.496228117471970    -2.944690297321166
    N               -0.416784437102897    -2.067228117471970    -0.793690297321166
    H                1.006215562897103     0.044771882528030    -1.437690297321166
    H               -0.625784437102897     0.339771882528030    -2.028690297321166
    H                0.150215562897103    -0.370228117471970    -4.320690297321166
    H               -0.763784437102897    -3.001228117471970    -0.678690297321166
    H               -0.482784437102897    -1.385228117471970    -0.051690297321166
    H                1.839154562897103    -0.343368117471970    -3.727180297321166
    H                0.835827562897103     1.164231882528030    -3.780920297321166

}
e, wfn = energy('scf', return_wfn=True)
gdma(wfn)
dmavals = variable('DMA DISTRIBUTED MULTIPOLES')
charges = np.array(dmavals)
print(charges)
np.save('SSI-009TYR-033ASN-1-dimer.npy', np.array(charges))