import numpy as np
set {scf_type pk
basis cc-pvdz
d_convergence 10
gdma_switch   0
gdma_limit    0
gdma_origin   [ 0.0,  0.0,  0.0 ]
}
molecule test {
    units Angstrom
    -1 1
    --
    -1 1
    C               -2.280556285604511    -0.518885291114290     0.883121343907918
    O               -1.669556285604512     0.464114708885710     1.703121343907918
    H               -0.741556285604512     0.465114708885710     1.396121343907918
    H               -1.563556285604512    -1.317885291114290     0.692121343907918
    H               -3.150589285604511    -0.935114291114290     1.412078343907918
    H               -2.583855285604512    -0.092394291114290    -0.084408656092082
    C                1.384443714395488     1.215114708885710    -1.401878656092082
    C                1.037443714395488    -0.062885291114290    -0.662878656092082
    O                0.853443714395488     0.027114708885710     0.569121343907918
    O                0.937443714395488    -1.137885291114290    -1.302878656092082
    H                2.453443714395489     1.397114708885710    -1.282878656092082
    H                0.837443714395488     2.060114708885711    -0.975878656092082
    H                1.140250714395488     1.144827708885710    -2.472128656092083

}
e, wfn = energy('scf', return_wfn=True)
gdma(wfn)
dmavals = variable('DMA DISTRIBUTED MULTIPOLES')
charges = np.array(dmavals)
print(charges)
np.save('SSI-115THR-142GLU-2-dimer.npy', np.array(charges))