import numpy as np
set {scf_type pk
basis cc-pvdz
d_convergence 10
gdma_switch   0
gdma_limit    0
gdma_origin   [ 0.0,  0.0,  0.0 ]
}
molecule test {
    units Angstrom
    0 1
    --
    0 1
    C               -0.704478086142317     3.973196203597552    -2.222336332322346
    C               -0.909478086142317     1.773196203597552     0.659663667677654
    C               -0.495478086142317     3.188196203597552    -0.962336332322346
    C                0.480521913857683     3.322196203597553    -0.024336332322346
    N               -1.384478086142317     2.240196203597552    -0.497336332322346
    N                0.215521913857683     2.418196203597552     0.972663667677654
    H               -1.362478086142317     0.986196203597552     1.251663667677654
    H                0.795521913857683     2.228196203597552     1.782663667677654
    H                1.311521913857683     4.009196203597552    -0.063336332322346
    H                0.084521913857683     4.720196203597553    -2.281336332322346
    H               -1.652478086142317     4.506196203597552    -2.143336332322346
    H               -0.698748086142317     3.381666203597552    -3.149736332322346
    C               -0.245478086142317    -3.723803796402448    -2.120336332322346
    C                0.627521913857683    -1.401803796402448     1.369663667677654
    C                0.018521913857683    -2.644803796402448     1.489663667677654
    C                0.967521913857683    -0.904803796402448     0.126663667677654
    C               -0.259478086142317    -3.387803796402448     0.351663667677654
    C                0.700521913857683    -1.671803796402448    -1.012336332322346
    C                0.103521913857683    -2.920803796402448    -0.900336332322346
    O                0.855521913857683    -0.676803796402448     2.500663667677654
    H               -0.260478086142317    -3.015803796402448     2.463663667677655
    H                0.558521913857683    -1.144803796402448     3.288663667677654
    H                1.425521913857683     0.066196203597552     0.046663667677654
    H               -0.775478086142317    -4.328803796402448     0.458663667677654
    H                0.948521913857683    -1.278803796402448    -1.988336332322346
    H                0.214521913857683    -3.275803796402448    -3.002336332322346
    H               -1.321478086142317    -3.670803796402448    -2.247336332322346
    H                0.018161913857683    -4.790733796402447    -2.073856332322346

}
e, wfn = energy('scf', return_wfn=True)
gdma(wfn)
dmavals = variable('DMA DISTRIBUTED MULTIPOLES')
charges = np.array(dmavals)
print(charges)
np.save('SSI-102HIE-109TYR-1-dimer.npy', np.array(charges))