import numpy as np
set {scf_type pk
basis cc-pvdz
d_convergence 10
gdma_switch   0
gdma_limit    0
gdma_origin   [ 0.0,  0.0,  0.0 ]
}
molecule test {
    units Angstrom
    0 1
    --
    0 1
    C                2.390319413648991     0.134084387203189    -1.349135991020288
    C                0.620319413648991    -1.302915612796811    -0.342135991020288
    C                1.439319413648991    -0.191915612796811    -0.249135991020288
    C               -0.250680586351009    -1.620915612796811     0.711864008979712
    C               -0.274680586351009    -0.854915612796811     1.850864008979712
    C                1.402319413648991     0.567084387203189     0.915864008979712
    C                0.546319413648991     0.233084387203189     1.961864008979712
    H                0.641319413648991    -1.923915612796811    -1.227135991020288
    H               -0.903680586351009    -2.476915612796811     0.633864008979712
    H                2.639319413648991     1.196084387203189    -1.309135991020288
    H                1.903319413648991    -0.059915612796811    -2.306135991020288
    H               -0.930680586351009    -1.131915612796811     2.657864008979712
    H                2.048319413648991     1.429084387203189     1.014864008979712
    H                0.528319413648991     0.833084387203189     2.858864008979711
    H                3.312869413648991    -0.461922612796811    -1.288451991020288
    C               -2.035680586351009     1.071084387203189    -1.815135991020288
    C               -3.270680586351009     1.531084387203189    -1.049135991020288
    H               -1.156680586351009     1.116084387203188    -1.171135991020288
    H               -2.176680586351008     0.043084387203189    -2.146135991020288
    H               -1.884680586351009     1.693084387203189    -2.695135991020288
    H               -4.104680586351009     1.585084387203189    -1.747135991020288
    H               -3.129487586351009     2.517987387203188    -0.584284991020288
    H               -3.536575586351009     0.811434387203189    -0.260843991020288

}
e, wfn = energy('scf', return_wfn=True)
gdma(wfn)
dmavals = variable('DMA DISTRIBUTED MULTIPOLES')
charges = np.array(dmavals)
print(charges)
np.save('SSI-077PHE-097LEU-1-dimer.npy', np.array(charges))