import numpy as np
set {scf_type pk
basis cc-pvdz
d_convergence 10
gdma_switch   0
gdma_limit    0
gdma_origin   [ 0.0,  0.0,  0.0 ]
}
molecule test {
    units Angstrom
    0 1
    --
    0 1
    C                0.181108278960152     1.631798491889273     3.233926595518174
    C               -1.345891721039847     1.468798491889273     3.412926595518174
    H                0.579108278960152     2.361798491889274     3.938926595518174
    H                0.673108278960152     0.677798491889273     3.427926595518174
    H                0.402108278960152     1.945798491889273     2.214926595518174
    H               -1.527891721039847     1.316798491889273     4.476926595518174
    H               -1.857620721039847     2.384750491889274     3.082524595518174
    H               -1.734311721039848     0.590349491889273     2.876776595518174
    C                0.599108278960152     2.299798491889274    -1.923073404481826
    C                1.015108278960152     0.469798491889273    -0.235073404481826
    C                0.376108278960152     0.901798491889273    -1.405073404481826
    C                0.816108278960152    -0.828201508110727     0.222926595518174
    C               -0.456891721039848     0.011798491889273    -2.087073404481826
    C               -0.026891721039847    -1.715201508110727    -0.459073404481826
    C               -0.666891721039848    -1.298201508110727    -1.632073404481826
    O               -0.266891721039847    -2.969201508110726     0.048926595518174
    H                1.664108278960152     1.139798491889273     0.308926595518174
    H                1.300108278960153    -1.158201508110727     1.130926595518174
    H                0.675108278960152     2.259798491889274    -3.011073404481826
    H                1.554108278960153     2.667798491889274    -1.546073404481827
    H               -0.942891721039848     0.328798491889273    -2.996073404481826
    H               -1.323891721039848    -1.968201508110726    -2.168073404481826
    H               -0.882891721039847    -3.467201508110727    -0.500073404481826
    H               -0.188442721039847     3.011389491889274    -1.634280404481826

}
e, wfn = energy('scf', return_wfn=True)
gdma(wfn)
dmavals = variable('DMA DISTRIBUTED MULTIPOLES')
charges = np.array(dmavals)
print(charges)
np.save('SSI-162VAL-167TYR-2-dimer.npy', np.array(charges))