import numpy as np
set {scf_type pk
basis cc-pvdz
d_convergence 10
gdma_switch   0
gdma_limit    0
gdma_origin   [ 0.0,  0.0,  0.0 ]
}
molecule test {
    units Angstrom
    0 1
    --
    0 1
    C               -0.337881919849510    -1.760237810163728     2.913231094708042
    C                0.666118080150490    -2.861237810163728     2.725231094708041
    C               -0.481881919849510    -1.631237810163728     4.421231094708041
    H               -1.281881919849510    -1.940237810163727     2.436231094708041
    H                0.129118080150490    -0.845237810163728     2.559231094708041
    H                0.165118080150490    -3.828237810163727     2.793231094708041
    H                1.188118080150490    -2.775237810163727     1.771231094708041
    H               -0.584881919849510    -0.583237810163728     4.701231094708042
    H                1.355658080150490    -2.744007810163728     3.574231094708042
    H                0.457968080150490    -2.028517810163728     4.832131094708043
    H               -1.347081919849510    -2.207797810163727     4.780411094708042
    C                1.020118080150490     1.754762189836272    -3.712768905291959
    C               -0.700881919849510     0.419762189836272    -0.017768905291959
    C                0.095118080150490    -0.389237810163728    -0.721768905291958
    C               -1.051881919849510     1.677762189836272    -0.545768905291959
    C                0.679118080150490     0.040762189836272    -1.895768905291959
    C               -0.516881919849510     2.073762189836272    -1.727768905291959
    C                0.390118080150490     1.293762189836272    -2.424768905291959
    H               -0.655881919849510     0.250762189836272     1.038231094708041
    H                0.455118080150490    -1.309237810163728    -0.280768905291959
    H               -1.305881919849510     2.528762189836272     0.074231094708041
    H                1.376118080150490    -0.604237810163728    -2.405768905291958
    H               -0.711881919849510     3.080762189836272    -2.073768905291959
    H                2.084118080150490     1.511762189836272    -3.673768905291959
    H                0.937118080150490     2.842762189836272    -3.771768905291959
    H                0.582618080150490     1.285352189836272    -4.606208905291957

}
e, wfn = energy('scf', return_wfn=True)
gdma(wfn)
dmavals = variable('DMA DISTRIBUTED MULTIPOLES')
charges = np.array(dmavals)
print(charges)
np.save('SSI-098PRO-114PHE-1-dimer.npy', np.array(charges))