import numpy as np
set {scf_type pk
basis cc-pvdz
d_convergence 10
gdma_switch   0
gdma_limit    0
gdma_origin   [ 0.0,  0.0,  0.0 ]
}
molecule test {
    units Angstrom
    0 1
    --
    0 1
    C               -1.093072503466996     1.560302975996771    -2.454911533700641
    C               -0.817072503466996    -0.189697024003229    -0.627911533700640
    C               -0.766072503466996     1.148302975996771    -1.039911533700640
    C               -0.530072503466996    -0.547697024003229     0.695088466299360
    C               -0.395072503466996     2.118302975996771    -0.105911533700640
    C               -0.168072503466996     0.435302975996771     1.600088466299360
    C               -0.103072503466996     1.766302975996771     1.211088466299360
    O                0.122927496533004     0.092302975996771     2.886088466299360
    H               -1.107072503466996    -0.957697024003229    -1.331911533700640
    H               -0.582072503466996    -1.578697024003229     1.016088466299360
    H               -0.718072503466996     2.573302975996771    -2.582911533700640
    H               -0.446072503466996     0.943302975996771    -3.100911533700640
    H               -0.318072503466996     3.152302975996771    -0.405911533700640
    H                0.187927496533004     2.528302975996771     1.922088466299360
    H                0.330927496533004     0.863302975996771     3.427088466299360
    H               -2.171239503466996     1.595572975996771    -2.670111533700640
    C                2.240927496533004    -2.513697024003229    -0.806911533700640
    C                1.046927496533004    -3.224697024003229    -1.434911533700640
    H                3.101927496533004    -2.708697024003229    -1.438911533700640
    H                2.029927496533004    -1.445697024003229    -0.795911533700640
    H                2.420927496533004    -2.838697024003229     0.218088466299360
    H                0.186927496533004    -3.115697024003229    -0.776911533700640
    H                1.277854496533004    -4.290127024003230    -1.581671533700640
    H                0.816591496533004    -2.766917024003229    -2.408241533700640

}
e, wfn = energy('scf', return_wfn=True)
gdma(wfn)
dmavals = variable('DMA DISTRIBUTED MULTIPOLES')
charges = np.array(dmavals)
print(charges)
np.save('SSI-003TYR-028VAL-2-dimer.npy', np.array(charges))