import numpy as np
set {scf_type pk
basis cc-pvdz
d_convergence 10
gdma_switch   0
gdma_limit    0
gdma_origin   [ 0.0,  0.0,  0.0 ]
}
molecule test {
    units Angstrom
    1 1
    --
    1 1
    C               -0.943780863838379    -1.450951428359361    -1.734690119542762
    C                1.357219136161621    -1.738951428359362    -0.843690119542763
    N                1.205219136161621    -0.756951428359361     0.027309880457237
    N                0.378219136161621    -2.092951428359362    -1.668690119542762
    N                2.504219136161621    -2.386951428359362    -0.877690119542763
    H                0.367219136161621    -0.184951428359361    -0.009690119542763
    H                1.964219136161621    -0.502951428359361     0.637309880457237
    H                0.567219136161621    -2.839951428359361    -2.321690119542762
    H                2.651219136161621    -3.124951428359362    -1.547690119542762
    H                3.257219136161621    -2.126951428359362    -0.259690119542763
    H               -0.883780863838379    -0.564951428359362    -2.370690119542763
    H               -1.248780863838379    -1.147951428359362    -0.733690119542763
    H               -1.712780863838379    -2.129101428359361    -2.133140119542763
    C               -2.431780863838379     2.717048571640639     1.544309880457237
    C               -1.104780863838379     2.056048571640638     1.212309880457238
    O               -0.973780863838379     1.340048571640639     0.220309880457237
    N               -0.103780863838379     2.284048571640638     2.052309880457238
    H               -2.243780863838379     3.586048571640639     2.177309880457238
    H               -3.033780863838379     2.025048571640639     2.127309880457237
    H                0.813219136161621     1.933048571640639     1.818309880457238
    H               -0.230780863838379     2.920048571640639     2.826309880457238
    H               -2.978900863838379     3.066517571640638     0.656319880457237

}
e, wfn = energy('scf', return_wfn=True)
gdma(wfn)
dmavals = variable('DMA DISTRIBUTED MULTIPOLES')
charges = np.array(dmavals)
print(charges)
np.save('SSI-028ARG-031GLN-1-dimer.npy', np.array(charges))