import numpy as np
set {scf_type pk
basis cc-pvdz
d_convergence 10
gdma_switch   0
gdma_limit    0
gdma_origin   [ 0.0,  0.0,  0.0 ]
}
molecule test {
    units Angstrom
    0 1
    --
    0 1
    C                2.034387760502900     2.099314391368162    -1.269787093816177
    C                2.922387760502900     2.731314391368162    -2.297787093816176
    C                1.296387760502900     2.981314391368162    -0.311787093816177
    H                1.304387760502900     1.478314391368162    -1.787787093816177
    H                2.711387760502900     1.428314391368162    -0.744787093816177
    H                3.246387760502900     1.903314391368162    -2.931787093816177
    H                1.904387760502900     3.843314391368162    -0.135787093816177
    H                0.359387760502900     3.305314391368162    -0.766787093816176
    H                3.818228760502900     3.190854391368162    -1.854737093816176
    H                2.407712760502900     3.435989391368162    -2.967517093816176
    H                1.088850760502900     2.518346391368162     0.664222906183824
    C               -3.380612239497100     0.277314391368162     0.977212906183824
    C               -0.073612239497100    -0.973685608631838    -0.281787093816177
    C               -1.015612239497100    -0.825685608631838     0.765212906183824
    C               -2.153612239497100    -0.120685608631838     0.238212906183823
    C               -1.845612239497100     0.144314391368162    -1.063787093816177
    C                1.142387760502900    -1.615685608631838    -0.110787093816177
    C                1.427387760502900    -2.130685608631838     1.141212906183823
    C               -0.703612239497100    -1.356685608631838     2.025212906183823
    C                0.512387760502900    -2.005685608631838     2.200212906183824
    N               -0.620612239497100    -0.376685608631838    -1.389787093816176
    H               -0.213612239497100    -0.340685608631838    -2.318787093816176
    H                1.839387760502900    -1.720685608631838    -0.932787093816176
    H               -2.495612239497100     0.675314391368162    -1.751787093816177
    H                2.367387760502901    -2.643685608631838     1.307212906183823
    H               -1.400612239497100    -1.257685608631838     2.839212906183824
    H               -3.779612239497100     1.181314391368162     0.514212906183824
    H               -3.032612239497100     0.572314391368162     1.968212906183823
    H                0.760387760502900    -2.418685608631838     3.171212906183823
    H               -4.199512239497100    -0.448840208631838     1.087212906183823

}
e, wfn = energy('scf', return_wfn=True)
gdma(wfn)
dmavals = variable('DMA DISTRIBUTED MULTIPOLES')
charges = np.array(dmavals)
print(charges)
np.save('SSI-030GLN-034TRP-1-dimer.npy', np.array(charges))