import numpy as np
set {scf_type pk
basis cc-pvdz
d_convergence 10
gdma_switch   0
gdma_limit    0
gdma_origin   [ 0.0,  0.0,  0.0 ]
}
molecule test {
    units Angstrom
    0 1
    --
    0 1
    C               -1.809662380900284    -0.149120767708713     2.979773965616360
    C               -0.983662380900284    -1.012120767708713     3.923773965616359
    H               -2.799662380900284     0.036879232291287     3.396773965616359
    H               -1.303662380900284     0.805879232291287     2.836773965616360
    H               -1.905662380900284    -0.644120767708713     2.013773965616359
    H               -0.903662380900284    -0.488120767708713     4.875773965616360
    H                0.017337619099716    -1.102120767708713     3.499773965616359
    H               -1.393012380900284    -2.021520767708713     4.077193965616360
    C               -0.406662380900284     2.852879232291287    -1.820226034383640
    C                0.742337619099716    -0.046120767708713     0.373773965616360
    C                0.767337619099716    -1.094120767708713    -0.545226034383640
    C                0.349337619099716     1.228879232291287    -0.042226034383640
    C               -0.018662380900284     1.465879232291287    -1.369226034383640
    C                0.398337619099716    -0.868120767708713    -1.872226034383641
    C                0.009337619099716     0.405879232291287    -2.278226034383641
    O                1.153337619099716    -2.341120767708713    -0.153226034383640
    H                1.040337619099716    -0.223120767708713     1.396773965616360
    H                0.354337619099716     2.043879232291288     0.670773965616360
    H                0.412337619099716    -1.664120767708713    -2.594226034383640
    H                1.196337619099716    -2.958120767708713    -0.883226034383640
    H                0.113337619099716     3.069879232291287    -2.753226034383641
    H               -0.049662380900284     3.580879232291287    -1.089226034383640
    H               -0.261662380900284     0.566879232291287    -3.311226034383640
    H               -1.486502380900284     3.004679232291287    -1.964826034383641

}
e, wfn = energy('scf', return_wfn=True)
gdma(wfn)
dmavals = variable('DMA DISTRIBUTED MULTIPOLES')
charges = np.array(dmavals)
print(charges)
np.save('SSI-118ILE-166TYR-1-dimer.npy', np.array(charges))