import numpy as np
set {scf_type pk
basis cc-pvdz
d_convergence 10
gdma_switch   0
gdma_limit    0
gdma_origin   [ 0.0,  0.0,  0.0 ]
}
molecule test {
    units Angstrom
    -1 1
    --
    -1 1
    C               -0.870483728247972    -0.578177407687399     1.144336869153832
    C               -1.577483728247972    -1.375177407687399     2.231336869153832
    C               -1.730483728247972    -0.465177407687399    -0.086663130846169
    O               -2.599483728247972    -1.345177407687399    -0.332663130846168
    O               -1.440483728247972     0.464822592312601    -0.862663130846169
    H               -0.609483728247972     0.410822592312601     1.525336869153831
    H                0.049516271752028    -1.082177407687399     0.845336869153831
    H               -1.958483728247972    -2.296177407687399     1.786336869153831
    H               -2.415603728247972    -0.801767407687399     2.654126869153832
    H               -0.834633728247972    -1.701307407687399     2.974186869153832
    C                2.235516271752028     0.630822592312601    -0.505663130846169
    C                1.853516271752028     2.109822592312601    -0.665663130846169
    O                3.645516271752028     0.513822592312601    -0.814663130846169
    H                2.058516271752028     0.322822592312601     0.525336869153831
    H                1.639516271752028     0.017822592312601    -1.177663130846168
    H                2.473516271752028     2.658822592312601     0.040336869153831
    H                3.987516271752028    -0.288177407687399    -0.388663130846169
    H                0.800016271752028     2.309602592312602    -0.420243130846168
    H                2.134526271752028     2.431502592312601    -1.679343130846169

}
e, wfn = energy('scf', return_wfn=True)
gdma(wfn)
dmavals = variable('DMA DISTRIBUTED MULTIPOLES')
charges = np.array(dmavals)
print(charges)
np.save('SSI-007ASP-119SER-1-dimer.npy', np.array(charges))