import numpy as np
set {scf_type pk
basis cc-pvdz
d_convergence 10
gdma_switch   0
gdma_limit    0
gdma_origin   [ 0.0,  0.0,  0.0 ]
}
molecule test {
    units Angstrom
    0 1
    --
    0 1
    C                0.721178193267389    -2.789660219113205     0.542582083515500
    C                0.568178193267389    -4.233660219113205     1.039582083515500
    C                2.123178193267389    -2.408660219113206     0.059582083515500
    H                0.014178193267389    -2.614660219113206    -0.268417916484500
    H                0.453178193267389    -2.122660219113206     1.361582083515500
    H                0.795178193267389    -4.938660219113206     0.240582083515500
    H                2.844178193267389    -2.623660219113205     0.847582083515500
    H               -0.474286806732611    -4.373512219113205     1.361620083515500
    H                1.251680193267389    -4.389231219113205     1.887298083515500
    H                2.399592193267389    -2.993242219113205    -0.830281916484500
    H                2.181274193267389    -1.327788219113206    -0.136222916484500
    C                0.628178193267389     2.825339780886795    -2.465417916484500
    C               -1.395821806732611     0.266339780886795    -0.491417916484500
    C               -0.990821806732611     0.553339780886794     0.817582083515500
    C               -0.871821806732611     1.010339780886795    -1.552417916484500
    C                0.053178193267389     2.030339780886794    -1.322417916484500
    C               -0.080821806732611     1.578339780886794     1.056582083515500
    C                0.434178193267389     2.310339780886795    -0.010417916484500
    O               -1.450821806732611    -0.161660219113205     1.876582083515500
    H               -2.098821806732611    -0.529660219113205    -0.673417916484500
    H               -1.174821806732611     0.782339780886794    -2.566417916484500
    H                0.236178193267389     1.803339780886794     2.065582083515500
    H               -1.075821806732611     0.155339780886795     2.699582083515500
    H                0.448178193267389     2.302339780886795    -3.406417916484500
    H                1.709178193267389     2.893339780886795    -2.327417916484500
    H                1.151178193267389     3.098339780886795     0.183582083515500
    H                0.210752193267389     3.841366280886795    -2.524118916484500

}
e, wfn = energy('scf', return_wfn=True)
gdma(wfn)
dmavals = variable('DMA DISTRIBUTED MULTIPOLES')
charges = np.array(dmavals)
print(charges)
np.save('SSI-011LEU-102TYR-1-dimer.npy', np.array(charges))