import numpy as np
set {scf_type pk
basis cc-pvdz
d_convergence 10
gdma_switch   0
gdma_limit    0
gdma_origin   [ 0.0,  0.0,  0.0 ]
}
molecule test {
    units Angstrom
    0 1
    --
    0 1
    C                0.101683655429679     0.751340374491705     2.309631087074414
    C                1.088683655429678     0.296340374491705     3.388631087074414
    C               -1.030316344570321    -0.240659625508295     2.084631087074414
    O               -1.000316344570321    -1.371659625508296     2.567631087074414
    N               -2.042316344570321     0.179340374491705     1.344631087074414
    H               -0.342316344570321     1.697340374491705     2.624631087074414
    H                0.619683655429679     0.929340374491705     1.373631087074414
    H                0.502683655429679     0.079340374491705     4.285631087074414
    H               -2.821316344570322    -0.445659625508295     1.197631087074414
    H               -2.062316344570321     1.124340374491704     0.989631087074414
    H                1.807893655429679     1.100254374491705     3.604168087074414
    H                1.612723655429679    -0.623252625508295     3.089077087074414
    C                0.497683655429679    -0.334659625508295    -1.338368912925586
    C                1.093683655429678    -1.719659625508295    -1.599368912925586
    C                0.473683655429679     0.525340374491705    -2.586368912925586
    O                0.569683655429679     0.025340374491705    -3.703368912925586
    N                0.332683655429679     1.828340374491705    -2.405368912925586
    H               -0.528316344570321    -0.439659625508295    -0.986368912925586
    H                1.086683655429678     0.171340374491705    -0.577368912925586
    H                0.569683655429679    -2.159659625508295    -2.450368912925586
    H                0.275683655429679     2.423340374491704    -3.216368912925586
    H                0.243683655429679     2.209340374491705    -1.476368912925586
    H                0.975743655429679    -2.355479025508295    -0.709523912925586
    H                2.154583655429679    -1.643055225508295    -1.879769912925586

}
e, wfn = energy('scf', return_wfn=True)
gdma(wfn)
dmavals = variable('DMA DISTRIBUTED MULTIPOLES')
charges = np.array(dmavals)
print(charges)
np.save('SSI-234ASN-237ASN-1-dimer.npy', np.array(charges))